 # Version information for this restart file 
 # current date 2025-01-16 06:12:39.396
 # current working dir /home/zkm/CP2K/Generate_dataset/Jennite/Elastic/elastic_cp2k/example/epsilonyy/neg
 # Program compiled at                2024年 10月 05日 星期六 13:00:57 CST
 # Program compiled on                                               ubuntu-GPU2
 # Program compiled for                                                    local
 # Source code revision number                                       git:6712648
 &GLOBAL
   PRINT_LEVEL LOW
   PROJECT_NAME "geoopt"
   RUN_TYPE GEO_OPT
 &END GLOBAL
 &MOTION
   &GEO_OPT
     OPTIMIZER BFGS
     MAX_ITER 1000
     MAX_DR  3.0000000000000001E-003
     MAX_FORCE  4.4999999999999999E-004
     RMS_DR  1.5000000000000000E-003
     RMS_FORCE  2.9999999999999997E-004
     STEP_START_VAL 54
     KEEP_SPACE_GROUP F
     &BFGS
       TRUST_RADIUS  2.0000000000000001E-001
     &END BFGS
   &END GEO_OPT
   &PRINT
     &TRAJECTORY SILENT
       FORMAT XMOL
     &END TRAJECTORY
     &CELL SILENT
     &END CELL
     &RESTART SILENT
       BACKUP_COPIES 0
     &END RESTART
     &RESTART_HISTORY OFF
     &END RESTART_HISTORY
   &END PRINT
 &END MOTION
 &FORCE_EVAL
   METHOD QS
   STRESS_TENSOR ANALYTICAL
   &DFT
     BASIS_SET_FILE_NAME BASIS_MOLOPT
     POTENTIAL_FILE_NAME POTENTIAL
     MULTIPLICITY 1
     CHARGE 0
     &SCF
       MAX_SCF 25
       EPS_SCF  9.9999999999999995E-008
       IGNORE_CONVERGENCE_FAILURE T
       &OT T
         ALGORITHM STRICT
         MINIMIZER DIIS
         LINESEARCH 2PNT
         PRECONDITIONER FULL_KINETIC
       &END OT
       &OUTER_SCF T
         EPS_SCF  9.9999999999999995E-008
         MAX_SCF 20
       &END OUTER_SCF
       &PRINT
         &RESTART SILENT
           BACKUP_COPIES 0
         &END RESTART
       &END PRINT
     &END SCF
     &QS
       EPS_DEFAULT  9.9999999999999998E-013
     &END QS
     &MGRID
       NGRIDS 4
       CUTOFF  5.0000000000000000E+002
       REL_CUTOFF  7.0000000000000000E+001
     &END MGRID
     &XC
       DENSITY_CUTOFF  1.0000000000000000E-010
       GRADIENT_CUTOFF  1.0000000000000000E-010
       TAU_CUTOFF  1.0000000000000000E-010
       &XC_FUNCTIONAL NO_SHORTCUT
         &PBE T
           PARAMETRIZATION PBESOL
         &END PBE
       &END XC_FUNCTIONAL
       &VDW_POTENTIAL
         POTENTIAL_TYPE PAIR_POTENTIAL
         &PAIR_POTENTIAL
           TYPE DFTD3(BJ)
           PARAMETER_FILE_NAME dftd3.dat
           REFERENCE_FUNCTIONAL "PBEsol"
         &END PAIR_POTENTIAL
       &END VDW_POTENTIAL
     &END XC
     &POISSON
       POISSON_SOLVER PERIODIC
       PERIODIC XYZ
     &END POISSON
   &END DFT
   &SUBSYS
     &CELL
       A  1.0581844796300002E+001  0.0000000000000000E+000  0.0000000000000000E+000
       B -4.9423550439000010E+000  1.3601575131700001E+001  0.0000000000000000E+000
       C -9.5659227150000015E-001 -2.7271876382000002E+000  1.0163400995300002E+001
       PERIODIC XYZ
       MULTIPLE_UNIT_CELL 1 1 1
     &END CELL
     &COORD
       Ca -7.3897608688537608E-001  1.4198964170658401E+000  3.6907655825903620E+000
       Ca  2.5250741455090204E+000  4.5922317089017310E+000  3.2698599481856157E+000
       Ca -1.8864771075483560E+000  4.8477389570439975E+000  3.9530543167032830E+000
       Ca  3.4535236824210531E+000  9.5756174300752694E-001  3.5180972942826174E+000
       Si  5.9535131323124073E+000  5.8412280769385490E+000  1.9549679580756207E+000
       Si  6.7207661730066555E+000  7.3564860605398530E-001  3.7259002449798948E+000
       Si  5.5003783648344040E+000  3.5418032394225074E+000  3.9185714869426991E+000
       O  4.9316698854109902E+000  1.2960725198660775E+001  2.6043234766486698E+000
       O  3.3539333352488448E-001  5.4904220940535415E+000  3.5906957255908356E+000
       O  5.5204128535050856E+000 -2.3906352480892543E-001  4.2332960018391761E+000
       O  7.8451128907534207E+000  9.3221843996236931E-001  4.8849367536756185E+000
       O  7.4508434389729832E+000  3.4207132195370060E-001  2.3025432944875415E+000
       O  5.1950856546446902E+000  4.5391979245688461E+000  2.6346436999414515E+000
       O  6.0138315116334944E+000  2.1378389113426302E+000  3.2442767519244402E+000
       O  6.0273872249071738E+000  5.6800748568397417E+000  3.5380408719063705E-001
       O  3.9998268972348852E+000  3.2149317042659264E+000  4.4461827666995566E+000
       O  6.6023558486321328E+000  4.1232449830839286E+000  4.9526754553521490E+000
       O  1.4683215499355140E+000  2.3084442093119968E+000  3.3131151889076156E+000
       O -1.3879024351805029E+000  3.1909931475943152E+000  2.3857221246168874E+000
       O  3.9861741867027707E+000  9.0812033141640014E-001  1.2187048377516629E+000
       O  4.4480502985474732E+000 -9.3416212171562840E-001  9.3281446412529636E+000
       O  8.2785271833083947E+000 -1.6371446974544557E+000  9.3903491043472602E+000
       O  6.1281646018173621E+000  1.0148597142584725E+000  9.3895747016752562E+000
       Ca  7.6623620734329663E+000  2.6256504996734966E+000  6.5727615712284884E+000
       Ca  4.3943039340030836E+000 -5.6686099537096757E-001  6.9814247744530560E+000
       Ca  8.7483349745924581E+000 -7.4936645883018105E-001  6.4054659082708820E+000
       Ca  3.4673759907674753E+000  3.0364701191447927E+000  6.6063763603649166E+000
       Si  1.0374988753097469E+000 -1.7498238714754411E+000  8.3244710286871069E+000
       Si  2.6668091502319707E-001  3.4184686713301171E+000  6.4405164146399674E+000
       Si  1.4034002810349853E+000  5.2567891371453279E-001  6.3419782271553151E+000
       O -2.8777734066233447E+000  4.6746686533031276E+000  7.6811240291623744E+000
       O  6.5358131436843721E+000 -1.4231333046166021E+000  6.5701108521537721E+000
       O  1.4720334049955603E+000  4.3434047969644158E+000  5.8602761377569239E+000
       O -9.3942322748992491E-001  3.1788125134443117E+000  5.3947174672634102E+000
       O -2.9779835310205588E-001  3.9206282451472103E+000  7.9037879895086309E+000
       O  1.5811714707584006E+000 -3.0075731747346596E-001  7.7574873200011982E+000
       O  1.0242019760005199E+000  2.0296464608296394E+000  6.9157773325294620E+000
       O  9.9667515881973678E-001 -1.7148287168297038E+000  9.9336577403699380E+000
       O  2.9111105851233368E+000  7.0830729947852145E-001  5.7714709483148683E+000
       O  2.5985567452492192E-001 -6.5906901328258410E-002  5.3670466421633281E+000
       O  5.4754745938188405E+000  1.6786035962621624E+000  6.9109720610691383E+000
       O -1.7552596553422113E+000  1.0707628169757679E+000  7.9022869112629612E+000
       O  3.5329992224709854E+000  3.8242339147976061E+000  8.8126549036966608E+000
       O  2.5268226697176930E+000  5.2260205645901516E+000  1.0524556877987532E+000
       O -1.3588699441461316E+000  5.5902271391187499E+000  7.0618680210357143E-001
       O  9.5517027860215709E-001  3.0805583749626249E+000  7.1666502715738223E-001
       Ca  9.2624825447348833E+000  3.3660747784236520E+000  2.0274633457596048E-002
       Ca -3.2053556192924026E+000  8.2301612272511964E+000  3.6729826964178880E+000
       Ca  7.3976212641488556E-002  1.1362387520590357E+001  3.2477914909933934E+000
       Ca -4.3539253406550191E+000  1.1640304646542114E+001  3.9304708517208908E+000
       Ca  9.6157614766566524E-001  7.7522981994273499E+000  3.5269361358670350E+000
       Si  3.4758895611035103E+000  1.2653694056540491E+001  1.9574555084467220E+000
       Si  4.2498235132342144E+000  7.5703738239119964E+000  3.7107517017558567E+000
       Si  3.0425582322619991E+000  1.0344470677524493E+001  3.9155056388525482E+000
       O  7.4062306953517734E+000  6.1579462106242717E+000  2.6042608310781983E+000
       O -2.1293637622761357E+000  1.2301742815840885E+001  3.5310957511883010E+000
       O  3.0290218932459361E+000  6.6242636715369230E+000  4.2250743878080117E+000
       O  5.3739596881906122E+000  7.7382300898894094E+000  4.8768458670917418E+000
       O  4.9786620150687559E+000  7.1223986176055814E+000  2.3052958087397157E+000
       O  2.6946516199392141E+000  1.1387044824231843E+001  2.6801600381127457E+000
       O  3.6150964140059680E+000  8.9953542701787796E+000  3.1821424049186033E+000
       O  3.5523031825683407E+000  1.2478291110531567E+001  3.5850610842822095E-001
       O  1.5560932497318323E+000  9.9592962002886569E+000  4.4389796250156914E+000
       O  4.1342673382395727E+000  1.0924381875212227E+001  4.9611673153438680E+000
       O -1.0033048645214613E+000  9.1101303347951887E+000  3.3094525893483508E+000
       O -3.8490669221769189E+000  9.9917607900463246E+000  2.3453126292368669E+000
       O  1.5063710816350724E+000  7.6947839533084510E+000  1.2334857710967322E+000
       O  2.0244433594984419E+000  5.8481715842899051E+000  9.3903261511461462E+000
       O  5.8078269881389701E+000  5.1663199663066930E+000  9.3892357310588128E+000
       O  3.6623607277791943E+000  7.8190009440825952E+000  9.3913171794417902E+000
       Ca  5.1914366135693033E+000  9.4259939078274666E+000  6.5620014259937420E+000
       Ca  1.9147292698087961E+000  6.2639673067154975E+000  7.0415817368982374E+000
       Ca  6.2737656365226702E+000  6.0606951753294291E+000  6.3911454987760550E+000
       Ca  1.0255691925258701E+000  9.8412711660281200E+000  6.6017229722142057E+000
       Si -1.4321595662899853E+000  5.0431499561833482E+000  8.3279243449449893E+000
       Si -2.1836883980805779E+000  1.0208500027143026E+001  6.4128591538983661E+000
       Si -1.0387553493601824E+000  7.3481507808522792E+000  6.3430302807077750E+000
       O -5.3479630278334023E+000  1.1461800572232663E+001  7.6868011196921229E+000
       O  4.0606063640088994E+000  5.3811012089353278E+000  6.5739941770070560E+000
       O -9.6400233358048582E-001  1.1089090991717413E+001  5.7919045692728632E+000
       O -3.4028027132891334E+000  9.9758119708141528E+000  5.3793213369191042E+000
       O -2.7173511879882679E+000  1.0810961111156226E+001  7.8441652888136133E+000
       O -7.9682454341867293E-001  6.4370859333041359E+000  7.6990016021349570E+000
       O -1.4674098586671089E+000  8.8201361460217722E+000  6.9765117181445344E+000
       O -1.4896851497404975E+000  5.1345221689824623E+000  9.9334290644183181E+000
       O  4.6704700991394399E-001  7.5730294569521561E+000  5.7844810891610887E+000
       O -2.1836646809918476E+000  6.7809405378115892E+000  5.3600605077092407E+000
       O  3.0114275285007279E+000  8.4805587050771631E+000  6.9145351601437044E+000
       O -4.2193949674959423E+000  7.8744526957684009E+000  7.8950857208675904E+000
       O  1.0552158180982101E+000  1.0631145972265273E+001  8.8126087475903940E+000
       O  1.0630254544452597E-001  1.2086952241247007E+001  1.0523277722555304E+000
       O -3.8333302577161819E+000  1.2385336668934908E+001  7.0677796469964271E-001
       O -1.4736684329919203E+000  9.9476549724633987E+000  7.1527538956001746E-001
       Ca  6.8105764874298940E+000  1.0176503197122685E+001  2.8478917688143082E-003
       H  3.1441871956833833E+000  9.2496828494950700E-001  5.9468906953231992E-001
       H  4.6328128273370055E+000  1.4194732681574858E+000  6.4668976042241466E-001
       H  5.1307984151464838E+000 -1.9551942731952715E-001  9.5286688875139696E+000
       H  4.9816160130669669E+000 -1.7986960553634124E+000  9.2947455444737770E+000
       H  8.1287639898681459E+000 -2.4821216414892411E+000  9.9520715015299714E+000
       H  9.0904951750066783E+000 -1.8808877573399108E+000  8.8186976085518722E+000
       H  5.6815012426095333E+000  1.8382682160709174E+000  9.9065228289408598E+000
       H  6.0007224634825302E+000  1.2353623223855945E+000  8.4111631410058862E+000
       H  3.9432774565635369E+000  3.3017979028018209E+000  9.6236759406198082E+000
       H  4.2792080458417070E+000  4.4839818531592490E+000  8.6901362861610369E+000
       H  1.9224747381919622E+000  4.5419435519507267E+000  6.4574781890620137E-001
       H  2.0781348023134778E+000  6.1245774480471997E+000  9.7898739422206671E-001
       H -2.0756703782018953E+000  5.8476926212363676E+000  1.3602566246072776E+000
       H -1.0511014579432458E+000  6.4720437369694110E+000  3.1262327112684141E-001
       H  1.0360598455758243E+000  2.8277944165401694E+000  1.6826437981171947E+000
       H  1.3953114627439045E+000  2.2384984380424804E+000  2.5813904042092772E-001
       H  6.7044090022338210E-001  7.7411891288184487E+000  6.0925914837388295E-001
       H  2.1756514651509362E+000  8.1870070574265625E+000  6.6565783989381710E-001
       H  2.7029284733226215E+000  6.5941869682438305E+000  9.5737344691806836E+000
       H  2.5588412502943849E+000  4.9850212616475282E+000  9.3306148624902114E+000
       H  5.6613100442815991E+000  4.3219034961809220E+000  9.9518272928142455E+000
       H  6.6184466452739050E+000  4.9268464821823867E+000  8.8149381343393411E+000
       H  3.2143102314160248E+000  8.6407162020170603E+000  9.9104747820064514E+000
       H  3.5351163164040718E+000  8.0401036711974907E+000  8.4133090530142667E+000
       H  1.4505905679616711E+000  1.0107167696029087E+001  9.6248672859477580E+000
       H  6.7446603325479453E+000 -2.3101961208846817E+000  8.7012226049714165E+000
       H -5.0220778105158026E-001  1.1409637543658164E+001  6.4233458992052306E-001
       H -3.4999285026740568E-001  1.2984770346775713E+001  9.9482058765410564E-001
       H -4.5524726168011558E+000  1.2647277396179023E+001  1.3545248500755898E+000
       H -3.5163285149607333E+000  1.3264200210714604E+001  3.0878215205883297E-001
       H -1.4187306790973666E+000  9.6703272773692408E+000  1.6758824064425790E+000
       H -1.0499274624467712E+000  9.0988232513798106E+000  2.5080298954125757E-001
       H  5.6847174389401012E-001  5.2722136040394911E+000  4.5296233912920369E+000
       H  1.3621358804258383E+000  2.6991812668960531E+000  4.2090288361596411E+000
       H -5.4321552496923098E-001  3.6982774520861845E+000  2.3939612851347465E+000
       H  6.3446881054117954E+000 -1.1582960207591875E+000  5.6317011113719255E+000
       H  5.6687510683131306E+000  1.2673674648927642E+000  6.0364206918971650E+000
       H -8.3657467755348880E-001  1.4149082158755670E+000  7.9404369268760178E+000
       H -1.9007032028655588E+000  1.2081084287086654E+001  4.4688266970009485E+000
       H -1.0956901713790801E+000  9.5097114083323060E+000  4.2040508853310108E+000
       H -3.0134898743681520E+000  1.0514826934988152E+001  2.3564872441216926E+000
       H  3.8593666372681064E+000  5.6529100237395937E+000  5.6415516172654749E+000
       H  3.1768619545142398E+000  8.0659597158582059E+000  6.0350461034808545E+000
       H -3.2950187740048569E+000  8.2081621762583339E+000  7.9070327841895915E+000
     &END COORD
     &KIND "Ca"
       BASIS_SET "DZVP-MOLOPT-SR-GTH-q10"
       ELEMENT "Ca"
       POTENTIAL "GTH-PBE"
       &POTENTIAL
         4 6
           3.9000000000000001E-001 2 -4.1670722199999997E+000 -1.5837978100000001E+000
         3
           2.8935571999999998E-001 2  2.0531876350000001E+001 -7.1297857799999997E+000
                                                               9.2045138699999995E+000
           3.2788205999999998E-001 2  5.8056051300000000E+000 -4.2875335999999997E-001
                                                               5.0730781999999996E-001
           6.7961713000000001E-001 1  5.8068259999999997E-002
         # Potential name: GTH-PBE for element symbol: CA
         # Potential read from the potential filename: POTENTIAL
       &END POTENTIAL
     &END KIND
     &KIND "Si"
       BASIS_SET "DZVP-MOLOPT-SR-GTH-q4"
       ELEMENT "Si"
       POTENTIAL "GTH-PBE"
       &POTENTIAL
         2 2
           4.4000000000000000E-001 1 -6.2692883300000002E+000
         2
           4.3563383000000000E-001 2  8.9517415000000007E+000 -2.7062708199999999E+000
                                                               3.4937806000000000E+000
           4.9794218000000001E-001 1  2.4312767300000000E+000
         # Potential name: GTH-PBE for element symbol: SI
         # Potential read from the potential filename: POTENTIAL
       &END POTENTIAL
     &END KIND
     &KIND "O"
       BASIS_SET "DZVP-MOLOPT-SR-GTH-q6"
       ELEMENT "O"
       POTENTIAL "GTH-PBE"
       &POTENTIAL
         2 4
           2.4455430000000000E-001 2 -1.6667214800000000E+001  2.4873113199999999E+000
         2
           2.2095592000000000E-001 1  1.8337458110000000E+001
           2.1133246999999999E-001 0
         # Potential name: GTH-PBE for element symbol: O
         # Potential read from the potential filename: POTENTIAL
       &END POTENTIAL
     &END KIND
     &KIND "H"
       BASIS_SET "DZVP-MOLOPT-SR-GTH-q1"
       ELEMENT "H"
       POTENTIAL "GTH-PBE"
       &POTENTIAL
         1
           2.0000000000000001E-001 2 -4.1789004399999996E+000  7.2446330999999997E-001
         0
         # Potential name: GTH-PBE for element symbol: H
         # Potential read from the potential filename: POTENTIAL
       &END POTENTIAL
     &END KIND
     &TOPOLOGY
       COORD_FILE_NAME coord.xyz
       COORD_FILE_FORMAT XYZ
       NUMBER_OF_ATOMS 138
       MULTIPLE_UNIT_CELL 1 1 1
     &END TOPOLOGY
   &END SUBSYS
   &PRINT
     &FORCES ON
     &END FORCES
     &STRESS_TENSOR ON
     &END STRESS_TENSOR
   &END PRINT
 &END FORCE_EVAL
