 # Version information for this restart file 
 # current date 2025-01-16 07:29:26.401
 # current working dir /home/zkm/CP2K/Generate_dataset/Jennite/Elastic/elastic_cp2k/example/epsilonzz/neg
 # Program compiled at                2024年 10月 05日 星期六 13:00:57 CST
 # Program compiled on                                               ubuntu-GPU2
 # Program compiled for                                                    local
 # Source code revision number                                       git:6712648
 &GLOBAL
   PRINT_LEVEL LOW
   PROJECT_NAME "geoopt"
   RUN_TYPE GEO_OPT
 &END GLOBAL
 &MOTION
   &GEO_OPT
     OPTIMIZER BFGS
     MAX_ITER 1000
     MAX_DR  3.0000000000000001E-003
     MAX_FORCE  4.4999999999999999E-004
     RMS_DR  1.5000000000000000E-003
     RMS_FORCE  2.9999999999999997E-004
     STEP_START_VAL 33
     KEEP_SPACE_GROUP F
     &BFGS
       TRUST_RADIUS  2.0000000000000001E-001
     &END BFGS
   &END GEO_OPT
   &PRINT
     &TRAJECTORY SILENT
       FORMAT XMOL
     &END TRAJECTORY
     &CELL SILENT
     &END CELL
     &RESTART SILENT
       BACKUP_COPIES 0
     &END RESTART
     &RESTART_HISTORY OFF
     &END RESTART_HISTORY
   &END PRINT
 &END MOTION
 &FORCE_EVAL
   METHOD QS
   STRESS_TENSOR ANALYTICAL
   &DFT
     BASIS_SET_FILE_NAME BASIS_MOLOPT
     POTENTIAL_FILE_NAME POTENTIAL
     MULTIPLICITY 1
     CHARGE 0
     &SCF
       MAX_SCF 25
       EPS_SCF  9.9999999999999995E-008
       IGNORE_CONVERGENCE_FAILURE T
       &OT T
         ALGORITHM STRICT
         MINIMIZER DIIS
         LINESEARCH 2PNT
         PRECONDITIONER FULL_KINETIC
       &END OT
       &OUTER_SCF T
         EPS_SCF  9.9999999999999995E-008
         MAX_SCF 20
       &END OUTER_SCF
       &PRINT
         &RESTART SILENT
           BACKUP_COPIES 0
         &END RESTART
       &END PRINT
     &END SCF
     &QS
       EPS_DEFAULT  9.9999999999999998E-013
     &END QS
     &MGRID
       NGRIDS 4
       CUTOFF  5.0000000000000000E+002
       REL_CUTOFF  7.0000000000000000E+001
     &END MGRID
     &XC
       DENSITY_CUTOFF  1.0000000000000000E-010
       GRADIENT_CUTOFF  1.0000000000000000E-010
       TAU_CUTOFF  1.0000000000000000E-010
       &XC_FUNCTIONAL NO_SHORTCUT
         &PBE T
           PARAMETRIZATION PBESOL
         &END PBE
       &END XC_FUNCTIONAL
       &VDW_POTENTIAL
         POTENTIAL_TYPE PAIR_POTENTIAL
         &PAIR_POTENTIAL
           TYPE DFTD3(BJ)
           PARAMETER_FILE_NAME dftd3.dat
           REFERENCE_FUNCTIONAL "PBEsol"
         &END PAIR_POTENTIAL
       &END VDW_POTENTIAL
     &END XC
     &POISSON
       POISSON_SOLVER PERIODIC
       PERIODIC XYZ
     &END POISSON
   &END DFT
   &SUBSYS
     &CELL
       A  1.0581844796300002E+001  0.0000000000000000E+000  0.0000000000000000E+000
       B -4.9423550439000010E+000  1.3738964779500000E+001  0.0000000000000000E+000
       C -9.5659227150000015E-001 -2.7547349881000005E+000  1.0061766985300000E+001
       PERIODIC XYZ
       MULTIPLE_UNIT_CELL 1 1 1
     &END CELL
     &COORD
       Ca -7.3757034301527524E-001  1.3701026624957662E+000  3.6982061803067907E+000
       Ca  2.5559248387333815E+000  4.5692567563474649E+000  3.2783241563992949E+000
       Ca -1.8778276231343067E+000  4.8395056650620614E+000  3.9887348709844019E+000
       Ca  3.4370542583835797E+000  9.0254703385673585E-001  3.5532566159526291E+000
       Si  5.9639751374728940E+000  5.8068942093835965E+000  2.0070088600116680E+000
       Si  6.7175106602591885E+000  6.5520579131710166E-001  3.7813704764605243E+000
       Si  5.5234778056626785E+000  3.4793286339305474E+000  3.9419654616584086E+000
       O  9.8876692289456773E+000 -7.1424705915291897E-001  2.5958491935429739E+000
       O  3.5315458025684859E-001  5.4841672470218539E+000  3.5610566699581367E+000
       O  5.5064477337162048E+000 -2.8985601611852901E-001  4.3221466899108938E+000
       O  7.8643068701747350E+000  8.5321594446843207E-001  4.9153165409505055E+000
       O  7.4135553714482274E+000  1.8747484506563289E-001  2.3663481010685414E+000
       O  5.2178800326389210E+000  4.4874598521822557E+000  2.6662596314605995E+000
       O  6.0402192317260948E+000  2.0667245155839229E+000  3.2803285361938852E+000
       O  6.0401917614907941E+000  5.6548143550789058E+000  4.0673996828912734E-001
       O  4.0192056116248462E+000  3.1607913282474058E+000  4.4644088665851793E+000
       O  6.6192651643150082E+000  4.0748955722499911E+000  4.9740737145800580E+000
       O  1.4653026512740124E+000  2.3005779926696257E+000  3.3415060130007173E+000
       O -1.3954811790061963E+000  3.1777690762233339E+000  2.4366364362921376E+000
       O  4.0022015752232969E+000  8.1836238005372619E-001  1.2777600832584379E+000
       O  4.4820072466184877E+000 -9.8099338118944646E-001  9.3611484674161769E+000
       O  8.2912296515920900E+000 -1.7351548356992454E+000  9.3676688190733852E+000
       O  6.1466393123249361E+000  9.4896238066433514E-001  9.3683536912401770E+000
       Ca  7.6769677701137313E+000  2.5708411924538082E+000  6.5817168786309299E+000
       Ca  4.3969448506985094E+000 -6.3021481202906793E-001  6.9972401992635920E+000
       Ca  8.7497472262027713E+000 -8.3909023725769505E-001  6.4215162713824556E+000
       Ca  3.4768875763145939E+000  2.9762879377685221E+000  6.6137563434036482E+000
       Si  1.0384510897166439E+000 -1.8050823974958905E+000  8.3130697988836584E+000
       Si  2.8742953563072032E-001  3.4100246751426617E+000  6.4106957148994503E+000
       Si  1.3917065605522450E+000  5.0565374611666047E-001  6.3556529634704884E+000
       O -2.8594318531366651E+000  4.6308637619829502E+000  7.6706579198413491E+000
       O  6.5453433851647445E+000 -1.5377724228204512E+000  6.6290635482237725E+000
       O  1.4995404094334841E+000  4.3042003288049955E+000  5.7954584845421069E+000
       O -9.2732686887758042E-001  3.1344002422888564E+000  5.3880616970949227E+000
       O -2.4105091574639856E-001  4.0227998804506333E+000  7.8385086528127843E+000
       O  1.5619874462847394E+000 -3.3944383714524118E-001  7.7594803266195118E+000
       O  1.0184187484973874E+000  2.0187478407072903E+000  6.9251343978001296E+000
       O  9.9044342382135120E-001 -1.7608514133995719E+000  9.9201110898735649E+000
       O  2.9038826053253199E+000  6.8225301503345448E-001  5.7964125502048027E+000
       O  2.5281212398725184E-001 -9.3216861898608838E-002  5.3787458839186444E+000
       O  5.4889575838361138E+000  1.6105969335768899E+000  6.9111473584783125E+000
       O -1.7320344084728703E+000  9.9866950580337899E-001  7.8897574058739997E+000
       O  3.4880572687795812E+000  3.7792200342850690E+000  8.8055897628499675E+000
       O  2.5530188702169645E+000  5.2114894604707640E+000  1.0490299262489540E+000
       O -1.3448520033182187E+000  5.5692141840828171E+000  7.1053030697764141E-001
       O  9.5654603097182300E-001  3.0830884254120088E+000  7.8002259744359370E-001
       Ca  9.2729176008335390E+000  3.3214591634563977E+000  8.4500941803845139E-002
       Ca -3.2073051544854390E+000  8.2410501092438757E+000  3.7077589913689319E+000
       Ca  8.0743964069804205E-002  1.1440071392444018E+001  3.2808721852731177E+000
       Ca -4.3538265185166516E+000  1.1715456695625786E+001  3.9714828505231248E+000
       Ca  9.6331594016316269E-001  7.7724177349312358E+000  3.5491546192853174E+000
       Si  3.4806382691716857E+000  1.2679496646574501E+001  1.9868864236971500E+000
       Si  4.2470258793728259E+000  7.5239784380676946E+000  3.7828044301137429E+000
       Si  3.0521627903420563E+000  1.0350378039304283E+001  3.9396164937226779E+000
       O  7.4138902987711885E+000  6.1442627631283857E+000  2.6491262431354370E+000
       O -2.1191737775352970E+000  1.2354252791742866E+001  3.5615773625771063E+000
       O  3.0341342055880105E+000  6.5795054215970197E+000  4.3228336849573017E+000
       O  5.3900614213375349E+000  7.7213159584047695E+000  4.9216158920197834E+000
       O  4.9445682581200163E+000  7.0536190588628607E+000  2.3683679192393425E+000
       O  2.7498440746650745E+000  1.1358884995442061E+001  2.6631243277146361E+000
       O  3.5698349779275884E+000  8.9358732977457436E+000  3.2807374310825446E+000
       O  3.5152711259706551E+000  1.2527268575348765E+001  3.8380334347361617E-001
       O  1.5484869689054435E+000  1.0031354477270346E+001  4.4637285153463022E+000
       O  4.1490166299242528E+000  1.0946578554177737E+001  4.9708830119083283E+000
       O -1.0062427774266769E+000  9.1709796429938066E+000  3.3416722324357941E+000
       O -3.8687071041160430E+000  1.0045527717946019E+001  2.4352921729645383E+000
       O  1.5302347135020253E+000  7.6881631666920978E+000  1.2724546181124801E+000
       O  1.9824106923896923E+000  5.8381379600884893E+000  9.2994971200702494E+000
       O  5.8189977702466171E+000  5.1337692673655173E+000  9.3691374652179462E+000
       O  3.6146994425198771E+000  7.8068419491207459E+000  9.3683756857990677E+000
       Ca  5.2071724872564848E+000  9.4426687037227133E+000  6.5802859389704640E+000
       Ca  1.9379379759677362E+000  6.2456398888884124E+000  6.9580651977560040E+000
       Ca  6.2811441054465069E+000  6.0297608083733820E+000  6.4229728462642495E+000
       Ca  1.0043340915178951E+000  9.8555468576153444E+000  6.6158586645042758E+000
       Si -1.4312724718622876E+000  5.0639618323832112E+000  8.3131449620270015E+000
       Si -2.1834663537462569E+000  1.0281404648001930E+001  6.4093999700492059E+000
       Si -1.0790519773816780E+000  7.3764216324714367E+000  6.3579237868427727E+000
       O -5.3310795767553367E+000  1.1500521641320386E+001  7.6700823235226041E+000
       O  4.0769126613588673E+000  5.3271650555543051E+000  6.6315336917278831E+000
       O -9.7072707844934880E-001  1.1177882729547704E+001  5.7983641741008256E+000
       O -3.3992798548928849E+000  1.0006984594023574E+001  5.3875018676103412E+000
       O -2.7105773759102445E+000  1.0896098862943591E+001  7.8378570225767410E+000
       O -9.0937521450673675E-001  6.5300814685522779E+000  7.7599506039491386E+000
       O -1.4529911066945587E+000  8.8901484842045111E+000  6.9253377647796537E+000
       O -1.4817284842176555E+000  5.1083987380519424E+000  9.9205723152687160E+000
       O  4.3092594074296414E-001  7.5549646485412749E+000  5.7934547944530292E+000
       O -2.2178410919267653E+000  6.7771830420422505E+000  5.3820159384316852E+000
       O  3.0156242189678748E+000  8.4873950440151980E+000  6.9072220506798070E+000
       O -4.2080678449674638E+000  7.8682229670164334E+000  7.8919980257990030E+000
       O  9.9116431562477869E-001  1.0705875296705356E+001  8.8018514068006422E+000
       O  8.1411842982135468E-002  1.2080720466928389E+001  1.0493420570361085E+000
       O -3.8171936694930109E+000  1.2436594063280914E+001  7.0431102097555709E-001
       O -1.5225040832554373E+000  9.9549659441213372E+000  7.7493518308375930E-001
       Ca  6.7719212811795479E+000  1.0190557151011115E+001  8.1687432158637399E-002
       H  3.1540576942857488E+000  8.6714096385292394E-001  6.6642682141419007E-001
       H  4.6518692234984842E+000  1.3439053152282396E+000  7.1642453147633267E-001
       H  5.1714044039957185E+000 -2.4405096175119287E-001  9.5456516429647884E+000
       H  5.0003455119271534E+000 -1.8549961776205226E+000  9.3067734784153338E+000
       H  8.1118222906752724E+000 -2.5896966398123413E+000  9.9021427047106467E+000
       H  9.1066881808059392E+000 -1.9844924508692050E+000  8.8073025367203002E+000
       H  5.6990706613403956E+000  1.7813936001242598E+000  9.8743014292440670E+000
       H  6.0109599903161550E+000  1.1601674549827174E+000  8.3872096573855011E+000
       H  3.9145029745028310E+000  3.2579664739870209E+000  9.6055802303169937E+000
       H  4.2261172945627523E+000  4.4395924824905428E+000  8.6581859550130513E+000
       H  1.9265973968159373E+000  4.5320175917149879E+000  6.6856076521127450E-001
       H  2.1058242322163592E+000  6.1113677211043340E+000  9.9390156083382275E-001
       H -2.0570854620333781E+000  5.8205435580211944E+000  1.3679788471013157E+000
       H -1.0279188296213260E+000  6.4611399190832319E+000  3.4495681713792969E-001
       H  1.0431859053707000E+000  2.8329779614633828E+000  1.7495328350263124E+000
       H  1.3964218298113278E+000  2.2360285909095023E+000  3.3125490769094146E-001
       H  6.7760903488805180E-001  7.7366571493937393E+000  6.6394829401689115E-001
       H  2.1768806891222150E+000  8.1971831375378734E+000  6.9616050206616398E-001
       H  2.6584612835540149E+000  6.5827760371508059E+000  9.5050346346531267E+000
       H  2.5086014614737739E+000  4.9691889861622620E+000  9.2674005901840975E+000
       H  5.6552294519558490E+000  4.2808719472621446E+000  9.9137652737896165E+000
       H  6.6347600555639925E+000  4.8885236104677796E+000  8.8073347101657600E+000
       H  3.1633346427682403E+000  8.6407106121533594E+000  9.8658286052541389E+000
       H  3.5072264891747253E+000  8.0276493793351751E+000  8.3857045111313280E+000
       H  1.4144527240963540E+000  1.0168761930089712E+001  9.5978764700895489E+000
       H  1.7413336229482812E+000  1.1349997944538204E+001  8.6475197838079403E+000
       H -5.4794406216672653E-001  1.1404378786598789E+001  6.6799799277223004E-001
       H -3.6195464832070307E-001  1.2982706497611398E+001  9.9482562707330791E-001
       H -4.5356285656047035E+000  1.2695822662604495E+001  1.3554243376580550E+000
       H -3.4938018914740292E+000  1.3325950985066276E+001  3.3965602900474084E-001
       H -1.4350392034942421E+000  9.7048529423837504E+000  1.7436067567993976E+000
       H -1.0823307954515391E+000  9.1092017627251600E+000  3.2736259530996170E-001
       H  5.8940595134058982E-001  5.2592271132705166E+000  4.4965781653400301E+000
       H  1.3457240763023965E+000  2.7215744602120453E+000  4.2224985675838909E+000
       H -5.4585722089990463E-001  3.6781835825570668E+000  2.4472743422102221E+000
       H  6.3519509207690827E+000 -1.2755721727123026E+000  5.6916358668337361E+000
       H  5.6645335016285321E+000  1.1920398283400286E+000  6.0359938754922293E+000
       H -8.0950025399952652E-001  1.3341666573399955E+000  7.9162741881903971E+000
       H -1.8851411905553683E+000  1.2134469666771718E+001  4.4989314993325618E+000
       H -1.1206239467219046E+000  9.5878438696865054E+000  4.2250534967693731E+000
       H -3.0164205219675249E+000  1.0540962511796993E+001  2.4397125446692711E+000
       H  3.8931756116903520E+000  5.5770140337398768E+000  5.6895513654902095E+000
       H  3.1951299374354476E+000  8.0804290238709111E+000  6.0276632766978908E+000
       H -3.2858963837955613E+000  8.2034894601871251E+000  7.9288508196580461E+000
     &END COORD
     &KIND "Ca"
       BASIS_SET "DZVP-MOLOPT-SR-GTH-q10"
       ELEMENT "Ca"
       POTENTIAL "GTH-PBE"
       &POTENTIAL
         4 6
           3.9000000000000001E-001 2 -4.1670722199999997E+000 -1.5837978100000001E+000
         3
           2.8935571999999998E-001 2  2.0531876350000001E+001 -7.1297857799999997E+000
                                                               9.2045138699999995E+000
           3.2788205999999998E-001 2  5.8056051300000000E+000 -4.2875335999999997E-001
                                                               5.0730781999999996E-001
           6.7961713000000001E-001 1  5.8068259999999997E-002
         # Potential name: GTH-PBE for element symbol: CA
         # Potential read from the potential filename: POTENTIAL
       &END POTENTIAL
     &END KIND
     &KIND "Si"
       BASIS_SET "DZVP-MOLOPT-SR-GTH-q4"
       ELEMENT "Si"
       POTENTIAL "GTH-PBE"
       &POTENTIAL
         2 2
           4.4000000000000000E-001 1 -6.2692883300000002E+000
         2
           4.3563383000000000E-001 2  8.9517415000000007E+000 -2.7062708199999999E+000
                                                               3.4937806000000000E+000
           4.9794218000000001E-001 1  2.4312767300000000E+000
         # Potential name: GTH-PBE for element symbol: SI
         # Potential read from the potential filename: POTENTIAL
       &END POTENTIAL
     &END KIND
     &KIND "O"
       BASIS_SET "DZVP-MOLOPT-SR-GTH-q6"
       ELEMENT "O"
       POTENTIAL "GTH-PBE"
       &POTENTIAL
         2 4
           2.4455430000000000E-001 2 -1.6667214800000000E+001  2.4873113199999999E+000
         2
           2.2095592000000000E-001 1  1.8337458110000000E+001
           2.1133246999999999E-001 0
         # Potential name: GTH-PBE for element symbol: O
         # Potential read from the potential filename: POTENTIAL
       &END POTENTIAL
     &END KIND
     &KIND "H"
       BASIS_SET "DZVP-MOLOPT-SR-GTH-q1"
       ELEMENT "H"
       POTENTIAL "GTH-PBE"
       &POTENTIAL
         1
           2.0000000000000001E-001 2 -4.1789004399999996E+000  7.2446330999999997E-001
         0
         # Potential name: GTH-PBE for element symbol: H
         # Potential read from the potential filename: POTENTIAL
       &END POTENTIAL
     &END KIND
     &TOPOLOGY
       COORD_FILE_NAME coord.xyz
       COORD_FILE_FORMAT XYZ
       NUMBER_OF_ATOMS 138
       MULTIPLE_UNIT_CELL 1 1 1
     &END TOPOLOGY
   &END SUBSYS
   &PRINT
     &FORCES ON
     &END FORCES
     &STRESS_TENSOR ON
     &END STRESS_TENSOR
   &END PRINT
 &END FORCE_EVAL
