 # Version information for this restart file 
 # current date 2025-01-16 08:05:17.105
 # current working dir /home/zkm/CP2K/Generate_dataset/Jennite/Elastic/elastic_cp2k/example/epsilonyz/neg
 # Program compiled at                2024年 10月 05日 星期六 13:00:57 CST
 # Program compiled on                                               ubuntu-GPU2
 # Program compiled for                                                    local
 # Source code revision number                                       git:6712648
 &GLOBAL
   PRINT_LEVEL LOW
   PROJECT_NAME "geoopt"
   RUN_TYPE GEO_OPT
 &END GLOBAL
 &MOTION
   &GEO_OPT
     OPTIMIZER BFGS
     MAX_ITER 1000
     MAX_DR  3.0000000000000001E-003
     MAX_FORCE  4.4999999999999999E-004
     RMS_DR  1.5000000000000000E-003
     RMS_FORCE  2.9999999999999997E-004
     STEP_START_VAL 28
     KEEP_SPACE_GROUP F
     &BFGS
       TRUST_RADIUS  2.0000000000000001E-001
     &END BFGS
   &END GEO_OPT
   &PRINT
     &TRAJECTORY SILENT
       FORMAT XMOL
     &END TRAJECTORY
     &CELL SILENT
     &END CELL
     &RESTART SILENT
       BACKUP_COPIES 0
     &END RESTART
     &RESTART_HISTORY OFF
     &END RESTART_HISTORY
   &END PRINT
 &END MOTION
 &FORCE_EVAL
   METHOD QS
   STRESS_TENSOR ANALYTICAL
   &DFT
     BASIS_SET_FILE_NAME BASIS_MOLOPT
     POTENTIAL_FILE_NAME POTENTIAL
     MULTIPLICITY 1
     CHARGE 0
     &SCF
       MAX_SCF 25
       EPS_SCF  9.9999999999999995E-008
       IGNORE_CONVERGENCE_FAILURE T
       &OT T
         ALGORITHM STRICT
         MINIMIZER DIIS
         LINESEARCH 2PNT
         PRECONDITIONER FULL_KINETIC
       &END OT
       &OUTER_SCF T
         EPS_SCF  9.9999999999999995E-008
         MAX_SCF 20
       &END OUTER_SCF
       &PRINT
         &RESTART SILENT
           BACKUP_COPIES 0
         &END RESTART
       &END PRINT
     &END SCF
     &QS
       EPS_DEFAULT  9.9999999999999998E-013
     &END QS
     &MGRID
       NGRIDS 4
       CUTOFF  5.0000000000000000E+002
       REL_CUTOFF  7.0000000000000000E+001
     &END MGRID
     &XC
       DENSITY_CUTOFF  1.0000000000000000E-010
       GRADIENT_CUTOFF  1.0000000000000000E-010
       TAU_CUTOFF  1.0000000000000000E-010
       &XC_FUNCTIONAL NO_SHORTCUT
         &PBE T
           PARAMETRIZATION PBESOL
         &END PBE
       &END XC_FUNCTIONAL
       &VDW_POTENTIAL
         POTENTIAL_TYPE PAIR_POTENTIAL
         &PAIR_POTENTIAL
           TYPE DFTD3(BJ)
           PARAMETER_FILE_NAME dftd3.dat
           REFERENCE_FUNCTIONAL "PBEsol"
         &END PAIR_POTENTIAL
       &END VDW_POTENTIAL
     &END XC
     &POISSON
       POISSON_SOLVER PERIODIC
       PERIODIC XYZ
     &END POISSON
   &END DFT
   &SUBSYS
     &CELL
       A  1.0581844796300002E+001  0.0000000000000000E+000  0.0000000000000000E+000
       B -4.9423550439000010E+000  1.3738964779500000E+001  0.0000000000000000E+000
       C -9.5659227150000015E-001 -2.8563689980999998E+000  1.0163400995300002E+001
       PERIODIC XYZ
       MULTIPLE_UNIT_CELL 1 1 1
     &END CELL
     &COORD
       Ca -7.4758055784647559E-001  1.3751122716496476E+000  3.6835553771978984E+000
       Ca  2.5189819320012004E+000  4.5879205619436814E+000  3.2896421953798680E+000
       Ca -1.8851997392718276E+000  4.8455462098327828E+000  3.9605288142466128E+000
       Ca  3.4484339212827355E+000  9.2775364638455038E-001  3.5187217102910142E+000
       Si  5.9623963734993621E+000  5.8262828991165030E+000  1.9713749084610712E+000
       Si  6.7162641611722940E+000  6.6935709034554347E-001  3.7882723804920997E+000
       Si  5.5111239977329687E+000  3.5134756203433253E+000  3.9239637949418626E+000
       O  9.8910273394160608E+000 -7.2717883780014481E-001  2.6098652753608667E+000
       O  3.3569907108595937E-001  5.5260180112406774E+000  3.5411092463135097E+000
       O  5.5108427499098758E+000 -2.9973720007634375E-001  4.2943318108682069E+000
       O  7.8434300845508442E+000  8.7495895586105776E-001  4.9417478194574471E+000
       O  7.4564485232574755E+000  2.2800801049775768E-001  2.3866640632570393E+000
       O  5.2287421902399647E+000  4.4901482483093567E+000  2.6164000631168909E+000
       O  6.0199706435183362E+000  2.0797538561210049E+000  3.3032013301799616E+000
       O  6.0222071942977156E+000  5.7305152359705112E+000  3.6317250889143915E-001
       O  4.0036389364117291E+000  3.2062347211149196E+000  4.4447773058169684E+000
       O  6.6038010025956675E+000  4.1129134492003638E+000  4.9576393489861204E+000
       O  1.4670258827268636E+000  2.2942347125201943E+000  3.3085473578261166E+000
       O -1.3896317112006136E+000  3.1784910244915285E+000  2.3938584451923188E+000
       O  4.0141384786223808E+000  8.3169162906478089E-001  1.2075794963097470E+000
       O  4.4968486282297437E+000 -1.0414761319764259E+000  9.3271349862591517E+000
       O  8.2782062255870521E+000 -1.7598301907439984E+000  9.4504461247162883E+000
       O  6.1315517270878503E+000  9.3658668624146091E-001  9.3906297729185688E+000
       Ca  7.6688845324234256E+000  2.5900897563225209E+000  6.5852819393166380E+000
       Ca  4.3963300480512997E+000 -6.1465667502052401E-001  6.9851271531209722E+000
       Ca  8.7524929657570105E+000 -8.2266118633673579E-001  6.4182246011491735E+000
       Ca  3.4853449416937203E+000  3.0010936209614103E+000  6.6110100845822108E+000
       Si  1.0373761525232630E+000 -1.8313992258283307E+000  8.3210893116555145E+000
       Si  2.8281530793110116E-001  3.4003357738245894E+000  6.4020054730910783E+000
       Si  1.4050493576214982E+000  5.0464965242818027E-001  6.3563559042779794E+000
       O -2.8785251279374515E+000  4.6406663610275292E+000  7.6854518088972767E+000
       O  6.5341283413511739E+000 -1.5220820674727824E+000  6.6278155052479120E+000
       O  1.5027459456610166E+000  4.2863787179502202E+000  5.7890552455493305E+000
       O -9.3796415785614151E-001  3.1569055359904641E+000  5.3746630522141672E+000
       O -2.5146313385673713E-001  3.9979444716331582E+000  7.8361207335657213E+000
       O  1.5810209848533574E+000 -3.7494224456923869E-001  7.7464163969757323E+000
       O  1.0027944728309131E+000  2.0073885456828244E+000  6.9357583649170236E+000
       O  1.0009837449372030E+000 -1.8239283494729044E+000  9.9317049357546825E+000
       O  2.9128184212559725E+000  7.1002955690261560E-001  5.7873855450693457E+000
       O  2.7370566837121002E-001 -7.7321325152403281E-002  5.3633314263877390E+000
       O  5.4810371749951061E+000  1.6294110557126438E+000  6.9161274249107514E+000
       O -1.7525515827226490E+000  1.0055077178555687E+000  7.9059601554161363E+000
       O  3.5280182852714086E+000  3.7777122401223457E+000  8.8212179793645547E+000
       O  2.5522988058042433E+000  5.2069986372750448E+000  1.0573388532046428E+000
       O -1.3567431307720907E+000  5.6344146440456422E+000  7.0221088570453605E-001
       O  9.5722237171536417E-001  3.0978603592491187E+000  7.1858934987942491E-001
       Ca  9.2672590502138039E+000  3.4073579234396316E+000  2.7059641916007873E-002
       Ca -3.2294219147966867E+000  8.2443258900858467E+000  3.6813080374375153E+000
       Ca  5.2247837547364138E-002  1.1436766101357678E+001  3.2853647684562075E+000
       Ca -4.3503743744957966E+000  1.1716646104349479E+001  3.9559289568607543E+000
       Ca  9.6351899770004423E-001  7.7953555763350684E+000  3.5207420868756749E+000
       Si  3.4884203731940420E+000  1.2699114197564242E+001  1.9725504171042230E+000
       Si  4.2408339945700790E+000  7.5571315748492456E+000  3.7783110814998060E+000
       Si  3.0469423102917412E+000  1.0373459236891131E+001  3.9129955558597835E+000
       O  7.4215648343388594E+000  6.1417675212636773E+000  2.6092638316913073E+000
       O -2.1323283100377082E+000  1.2398991666740750E+001  3.5362106924038055E+000
       O  3.0179639601352277E+000  6.6159742214846888E+000  4.2972794047381146E+000
       O  5.3653443408336967E+000  7.7488713971072620E+000  4.9384296883917997E+000
       O  4.9860245167556903E+000  7.0904705013909348E+000  2.3880759033784678E+000
       O  2.7506744025953114E+000  1.1365485698263448E+001  2.6203745359174153E+000
       O  3.5725975350815240E+000  8.9659971647227810E+000  3.2476762473213627E+000
       O  3.5507205712715773E+000  1.2599554061541790E+001  3.6475898033214299E-001
       O  1.5498037902324375E+000  1.0023885839114024E+001  4.4409874522144044E+000
       O  4.1316587822626385E+000  1.0978169944165918E+001  4.9533995790229692E+000
       O -1.0075134963636541E+000  9.1637847143309443E+000  3.3094156136490449E+000
       O -3.8601259933675269E+000  1.0048256263880738E+001  2.3919551751846515E+000
       O  1.5280361400493190E+000  7.6984721225483330E+000  1.2147877445840116E+000
       O  1.9728738231450889E+000  5.8309918024178673E+000  9.3201071738949892E+000
       O  5.8066675180982745E+000  5.1094455817277371E+000  9.4504232029991506E+000
       O  3.6539120677851624E+000  7.8001797168398372E+000  9.3903290610541337E+000
       Ca  5.1950905837459862E+000  9.4595264561393577E+000  6.5842462846481062E+000
       Ca  1.9201280133310112E+000  6.2528861127837141E+000  6.9641849107850566E+000
       Ca  6.2769481016288085E+000  6.0500065430218282E+000  6.4241939077508601E+000
       Ca  1.0076883284509128E+000  9.8679266930184042E+000  6.6068986801197553E+000
       Si -1.4360851937796675E+000  5.0481369971546846E+000  8.3182642216850677E+000
       Si -2.1946128660226449E+000  1.0284903326799176E+001  6.3973911493526225E+000
       Si -1.0909238503306209E+000  7.3818325824083697E+000  6.3560360309652841E+000
       O -5.3495301359355540E+000  1.1510908520058138E+001  7.6863974112662703E+000
       O  4.0610472857546469E+000  5.3501209108669983E+000  6.6292690620768839E+000
       O -9.8741848713172453E-001  1.1190880315939266E+001  5.7899255757896668E+000
       O -3.4123530703994138E+000  1.0029229065891048E+001  5.3710447324633703E+000
       O -2.7254165719549048E+000  1.0854291828633629E+001  7.8423446666493044E+000
       O -9.2326628548576473E-001  6.5243982259843669E+000  7.7606819115564374E+000
       O -1.4648482663970468E+000  8.8962326761230059E+000  6.9198096425413578E+000
       O -1.4712631466441755E+000  5.0457072996700445E+000  9.9290991105381963E+000
       O  4.1700437302260829E-001  7.5707836901611207E+000  5.7847739872342929E+000
       O -2.2323179588083777E+000  6.7995979230886716E+000  5.3699358792655785E+000
       O  3.0063224681529355E+000  8.4978276215284492E+000  6.9156612597723077E+000
       O -4.2254928741867790E+000  7.8762790965897453E+000  7.9068434563801704E+000
       O  1.0625988317055344E+000  1.0641450639207541E+001  8.8195115308500789E+000
       O  8.1907406044024911E-002  1.2075069718856891E+001  1.0576921381636504E+000
       O -3.8286551475048594E+000  1.2503334270148095E+001  7.0228152680572309E-001
       O -1.5154145287457483E+000  9.9675003811825125E+000  7.1686794362865458E-001
       Ca  6.7908112032698318E+000  1.0275585599238774E+001  2.6736953515391178E-002
       H  3.1715944000993486E+000  8.8674398549445854E-001  5.9053820822806347E-001
       H  4.6661881910332754E+000  1.3558228805726953E+000  6.5550051391403419E-001
       H  5.1692527171583480E+000 -2.9731616796610122E-001  9.5322077756016714E+000
       H  5.0278773132527013E+000 -1.9062904569414423E+000  9.2808114845171872E+000
       H  8.1245609558011829E+000 -2.6148086576295975E+000  9.9972812891093028E+000
       H  9.0804005593246764E+000 -1.9937742898052164E+000  8.8683318539853211E+000
       H  5.6802497032895056E+000  1.7579048894190084E+000  9.9066030527270001E+000
       H  6.0078586821223503E+000  1.1641153244520963E+000  8.4130993868654098E+000
       H  3.9221181643317204E+000  3.2463896092444182E+000  9.6288843491822913E+000
       H  4.2724294236242875E+000  4.4410864755399491E+000  8.7173981507238416E+000
       H  1.9379677843748961E+000  4.5245814864332301E+000  6.5931771177335841E-001
       H  2.1147693402275065E+000  6.1080778713229833E+000  9.6948665417153246E-001
       H -2.0653622970144796E+000  5.8873438695864788E+000  1.3677247145018285E+000
       H -1.0502327292679110E+000  6.5123660514678861E+000  2.9959588686301553E-001
       H  1.0363548913022844E+000  2.8383298303524924E+000  1.6833704607768982E+000
       H  1.3993119507680296E+000  2.2504756323811419E+000  2.6092286625791850E-001
       H  6.8752881069221938E-001  7.7522708109530134E+000  5.9248054743560663E-001
       H  2.1759384635860526E+000  8.2299242376205708E+000  6.6725213206299405E-001
       H  2.6499224767220286E+000  6.5691953795754152E+000  9.5278908183628026E+000
       H  2.5090861414347758E+000  4.9699404985344326E+000  9.2762712209437890E+000
       H  5.6513842609044778E+000  4.2534109313418247E+000  9.9958824981086885E+000
       H  6.6085158193715356E+000  4.8747226031510751E+000  8.8681550221827212E+000
       H  3.2070970840684407E+000  8.6216143661484619E+000  9.9058415397318704E+000
       H  3.5312605075973709E+000  8.0288243312148797E+000  8.4130070413999825E+000
       H  1.4592081553418434E+000  1.0110980788276910E+001  9.6286680990453846E+000
       H  6.7534334548311135E+000 -2.4395343843208801E+000  8.7086288260200835E+000
       H -5.3404314869818903E-001  1.1396370892634597E+001  6.5677422736831681E-001
       H -3.5096884767941156E-001  1.2978489040142090E+001  9.6996735168881176E-001
       H -4.5381467571899776E+000  1.2756590380828346E+001  1.3666845211747647E+000
       H -3.5190055050341003E+000  1.3381750714480232E+001  3.0322454343293542E-001
       H -1.4418239111476570E+000  9.7054347891155341E+000  1.6808512315851800E+000
       H -1.0730780148975496E+000  9.1208479244843144E+000  2.5899648930025959E-001
       H  5.5562537520223543E-001  5.3136485094800632E+000  4.4825156230420928E+000
       H  1.3746252957998153E+000  2.6820829386664555E+000  4.2076593318142912E+000
       H -5.3528414839154470E-001  3.6685201154486911E+000  2.4158039536988722E+000
       H  6.3515209490097195E+000 -1.2670618985009352E+000  5.6863071189401513E+000
       H  5.6759341026345993E+000  1.2129853768233523E+000  6.0446395588292283E+000
       H -8.2963661110327558E-001  1.3409472939986880E+000  7.9319064363149501E+000
       H -1.9066566154802493E+000  1.2191952330718657E+001  4.4782233620795067E+000
       H -1.1171458600356554E+000  9.5471727145190286E+000  4.2081792202917843E+000
       H -3.0054926243134790E+000  1.0537835253343406E+001  2.4122109361370994E+000
       H  3.8872297363323836E+000  5.6010301169692438E+000  5.6863214163434046E+000
       H  3.1971436833495073E+000  8.0868868796897022E+000  6.0401985052252716E+000
       H -3.3057583068890906E+000  8.2190424469323045E+000  7.9395285331458973E+000
     &END COORD
     &KIND "Ca"
       BASIS_SET "DZVP-MOLOPT-SR-GTH-q10"
       ELEMENT "Ca"
       POTENTIAL "GTH-PBE"
       &POTENTIAL
         4 6
           3.9000000000000001E-001 2 -4.1670722199999997E+000 -1.5837978100000001E+000
         3
           2.8935571999999998E-001 2  2.0531876350000001E+001 -7.1297857799999997E+000
                                                               9.2045138699999995E+000
           3.2788205999999998E-001 2  5.8056051300000000E+000 -4.2875335999999997E-001
                                                               5.0730781999999996E-001
           6.7961713000000001E-001 1  5.8068259999999997E-002
         # Potential name: GTH-PBE for element symbol: CA
         # Potential read from the potential filename: POTENTIAL
       &END POTENTIAL
     &END KIND
     &KIND "Si"
       BASIS_SET "DZVP-MOLOPT-SR-GTH-q4"
       ELEMENT "Si"
       POTENTIAL "GTH-PBE"
       &POTENTIAL
         2 2
           4.4000000000000000E-001 1 -6.2692883300000002E+000
         2
           4.3563383000000000E-001 2  8.9517415000000007E+000 -2.7062708199999999E+000
                                                               3.4937806000000000E+000
           4.9794218000000001E-001 1  2.4312767300000000E+000
         # Potential name: GTH-PBE for element symbol: SI
         # Potential read from the potential filename: POTENTIAL
       &END POTENTIAL
     &END KIND
     &KIND "O"
       BASIS_SET "DZVP-MOLOPT-SR-GTH-q6"
       ELEMENT "O"
       POTENTIAL "GTH-PBE"
       &POTENTIAL
         2 4
           2.4455430000000000E-001 2 -1.6667214800000000E+001  2.4873113199999999E+000
         2
           2.2095592000000000E-001 1  1.8337458110000000E+001
           2.1133246999999999E-001 0
         # Potential name: GTH-PBE for element symbol: O
         # Potential read from the potential filename: POTENTIAL
       &END POTENTIAL
     &END KIND
     &KIND "H"
       BASIS_SET "DZVP-MOLOPT-SR-GTH-q1"
       ELEMENT "H"
       POTENTIAL "GTH-PBE"
       &POTENTIAL
         1
           2.0000000000000001E-001 2 -4.1789004399999996E+000  7.2446330999999997E-001
         0
         # Potential name: GTH-PBE for element symbol: H
         # Potential read from the potential filename: POTENTIAL
       &END POTENTIAL
     &END KIND
     &TOPOLOGY
       COORD_FILE_NAME coord.xyz
       COORD_FILE_FORMAT XYZ
       NUMBER_OF_ATOMS 138
       MULTIPLE_UNIT_CELL 1 1 1
     &END TOPOLOGY
   &END SUBSYS
   &PRINT
     &FORCES ON
     &END FORCES
     &STRESS_TENSOR ON
     &END STRESS_TENSOR
   &END PRINT
 &END FORCE_EVAL
