 # Version information for this restart file 
 # current date 2025-01-15 06:58:12.538
 # current working dir /home/zkm/CP2K/Generate_dataset/Jennite/Elastic/elastic_cp2k/example
 # Program compiled at                2024年 10月 05日 星期六 13:00:57 CST
 # Program compiled on                                               ubuntu-GPU2
 # Program compiled for                                                    local
 # Source code revision number                                       git:6712648
 &GLOBAL
   PRINT_LEVEL LOW
   PROJECT_NAME "cellopt"
   RUN_TYPE CELL_OPT
 &END GLOBAL
 &MOTION
   &CELL_OPT
     OPTIMIZER BFGS
     MAX_ITER 400
     MAX_DR  3.0000000000000001E-003
     MAX_FORCE  4.4999999999999999E-004
     RMS_DR  1.5000000000000000E-003
     RMS_FORCE  2.9999999999999997E-004
     STEP_START_VAL 244
     KEEP_SPACE_GROUP F
     TYPE DIRECT_CELL_OPT
     EXTERNAL_PRESSURE  1.0132500000000000E+000
     KEEP_ANGLES F
     KEEP_SYMMETRY F
     CONSTRAINT NONE
     PRESSURE_TOLERANCE  1.0000000000000000E+002
     &BFGS
       TRUST_RADIUS  2.0000000000000001E-001
     &END BFGS
   &END CELL_OPT
   &PRINT
     &TRAJECTORY SILENT
       FORMAT XMOL
     &END TRAJECTORY
     &CELL SILENT
     &END CELL
     &RESTART SILENT
       BACKUP_COPIES 0
     &END RESTART
     &RESTART_HISTORY OFF
     &END RESTART_HISTORY
   &END PRINT
 &END MOTION
 &FORCE_EVAL
   METHOD QS
   STRESS_TENSOR ANALYTICAL
   &DFT
     BASIS_SET_FILE_NAME BASIS_MOLOPT
     POTENTIAL_FILE_NAME POTENTIAL
     MULTIPLICITY 1
     CHARGE 0
     &SCF
       MAX_SCF 25
       EPS_SCF  9.9999999999999995E-007
       IGNORE_CONVERGENCE_FAILURE T
       &OT T
         ALGORITHM STRICT
         MINIMIZER DIIS
         LINESEARCH 2PNT
         PRECONDITIONER FULL_KINETIC
       &END OT
       &OUTER_SCF T
         EPS_SCF  9.9999999999999995E-007
         MAX_SCF 20
       &END OUTER_SCF
       &PRINT
         &RESTART SILENT
           BACKUP_COPIES 0
         &END RESTART
       &END PRINT
     &END SCF
     &QS
       EPS_DEFAULT  9.9999999999999998E-013
     &END QS
     &MGRID
       NGRIDS 4
       CUTOFF  5.0000000000000000E+002
       REL_CUTOFF  7.0000000000000000E+001
     &END MGRID
     &XC
       DENSITY_CUTOFF  1.0000000000000000E-010
       GRADIENT_CUTOFF  1.0000000000000000E-010
       TAU_CUTOFF  1.0000000000000000E-010
       &XC_FUNCTIONAL NO_SHORTCUT
         &PBE T
           PARAMETRIZATION PBESOL
         &END PBE
       &END XC_FUNCTIONAL
       &VDW_POTENTIAL
         POTENTIAL_TYPE PAIR_POTENTIAL
         &PAIR_POTENTIAL
           TYPE DFTD3(BJ)
           PARAMETER_FILE_NAME dftd3.dat
           REFERENCE_FUNCTIONAL "PBEsol"
         &END PAIR_POTENTIAL
       &END VDW_POTENTIAL
     &END XC
     &POISSON
       POISSON_SOLVER PERIODIC
       PERIODIC XYZ
     &END POISSON
   &END DFT
   &SUBSYS
     &CELL
       A  1.0581844796288889E+001  0.0000000000000000E+000  0.0000000000000000E+000
       B -4.9423550438959767E+000  1.3738964779470088E+001  0.0000000000000000E+000
       C -9.5659227145915859E-001 -2.7547349881000667E+000  1.0163400995300551E+001
       PERIODIC XYZ
       MULTIPLE_UNIT_CELL 1 1 1
     &END CELL
     &COORD
       Ca -7.4292358122539337E-001  1.3816005096640482E+000  3.6812382295245820E+000
       Ca  2.5227469823381794E+000  4.5793456906241108E+000  3.2888703084297721E+000
       Ca -1.8752278102271900E+000  4.8555711160690738E+000  3.9503090341549352E+000
       Ca  3.4530327158478595E+000  9.4399458031607109E-001  3.5221242633642524E+000
       Si  5.9564501097035274E+000  5.8076072174812250E+000  1.9739451320508743E+000
       Si  6.7241076422435571E+000  6.5171173961801865E-001  3.7978473636974246E+000
       Si  5.5324447973006867E+000  3.4932679211803959E+000  3.9306563961189851E+000
       O  9.8857945241496541E+000 -7.1042384314297613E-001  2.6000984707803227E+000
       O  3.4004871144548110E-001  5.5552895408042522E+000  3.5379110833636149E+000
       O  5.5027404428461493E+000 -2.8651981620765182E-001  4.3191618195478529E+000
       O  7.8627927779276048E+000  8.5770016010482741E-001  4.9394247414751495E+000
       O  7.4193101727550461E+000  1.7853625295232867E-001  2.3857093811032266E+000
       O  5.2515944736445794E+000  4.4573674318518597E+000  2.6184346533890817E+000
       O  6.0416100160929025E+000  2.0619371678236162E+000  3.3045390507211918E+000
       O  5.9876309633521725E+000  5.6790872053153381E+000  3.6692378994031449E-001
       O  4.0226633325694738E+000  3.1872543826661865E+000  4.4487988783225099E+000
       O  6.6287004478835536E+000  4.0983103184663090E+000  4.9571762942397317E+000
       O  1.4683988094171800E+000  2.3199267196500646E+000  3.3116109516975492E+000
       O  9.1930454346062707E+000  3.1913382977230338E+000  2.3932580960728131E+000
       O  4.0143865613631089E+000  8.3776933965296396E-001  1.2177964513277471E+000
       O  4.4891926287996142E+000 -9.7038699069872625E-001  9.3168210736991774E+000
       O  8.2944347902265267E+000 -1.7289158864645466E+000  9.4499247034733820E+000
       O  6.1346948808524173E+000  1.0126908816330320E+000  9.3967188964871653E+000
       Ca  7.6948964989727786E+000  2.5984383706507685E+000  6.5861298723462038E+000
       Ca  4.4451814878314790E+000 -6.0428970078841859E-001  6.9439087254878569E+000
       Ca  8.7707130077392890E+000 -8.2317609896341781E-001  6.4289950658456325E+000
       Ca  3.4827847884004606E+000  2.9800451697568384E+000  6.6151822936451410E+000
       Si  1.0434114995384460E+000 -1.8032293821845120E+000  8.3229618744266851E+000
       Si  2.8801799159441133E-001  3.4199096187937124E+000  6.4004361811869055E+000
       Si  1.4008329435824620E+000  5.1416567296791627E-001  6.3544708969441004E+000
       O -2.8647359163900452E+000  4.6506921685566365E+000  7.6889607857839373E+000
       O  6.5751702475625367E+000 -1.5711587823688473E+000  6.6265446665855894E+000
       O  1.4962309487342069E+000  4.3203608683668229E+000  5.7878562833915153E+000
       O -9.2028485433906504E-001  3.1499322838706587E+000  5.3658829154782932E+000
       O -2.7266008854037943E-001  3.9916531097520411E+000  7.8334423407178182E+000
       O  1.5682969190542204E+000 -3.3414267986270801E-001  7.7628623598582731E+000
       O  1.0267949053209906E+000  2.0316171490133250E+000  6.9194767267465274E+000
       O  1.0175835010140852E+000 -1.7919349752605040E+000  9.9335696040604944E+000
       O  2.9102415757419284E+000  6.9874082040238961E-001  5.7845469829885490E+000
       O  2.6195625347787055E-001 -7.6389615725524371E-002  5.3693947414819085E+000
       O  5.5002284725606634E+000  1.6334231469885891E+000  6.9109607169745368E+000
       O -1.7309583077234312E+000  1.0163142667279021E+000  7.9060812207745119E+000
       O  3.4895672467237953E+000  3.7945031749311702E+000  8.8204772207033777E+000
       O  2.5505189922449363E+000  5.2097890035425847E+000  1.0577142365854861E+000
       O -1.3377672185572902E+000  5.5745325091518501E+000  7.0501775797688426E-001
       O  9.7670264684274544E-001  3.0450513020819026E+000  7.1414546648808674E-001
       Ca -1.3088001712580097E+000  3.3433289617512365E+000  2.1659209329491197E-002
       Ca -3.2152371407377927E+000  8.2522446452557290E+000  3.6821587394155255E+000
       Ca  5.2275556996418761E-002  1.1450870188595704E+001  3.2908681810740621E+000
       Ca -4.3464916929809636E+000  1.1725857560957275E+001  3.9499525551343146E+000
       Ca  9.8048003360257208E-001  7.8146605298712473E+000  3.5162486326669504E+000
       Si  3.4863402792904843E+000  1.2676214444291354E+001  1.9721534486636294E+000
       Si  4.2512046537420618E+000  7.5211622317660920E+000  3.7995824705290548E+000
       Si  3.0607171839911160E+000  1.0362819463231419E+001  3.9303893728862538E+000
       O  7.4142120024448710E+000  6.1597475395553056E+000  2.6007938815204241E+000
       O -2.1308360158364303E+000  1.2424195994792962E+001  3.5390871613438200E+000
       O  3.0298718784005287E+000  6.5825019363576631E+000  4.3217433450815239E+000
       O  5.3904931203349342E+000  7.7268399514867498E+000  4.9403252167621678E+000
       O  4.9457790564118094E+000  7.0474749397493319E+000  2.3878050005428784E+000
       O  2.7811576759834429E+000  1.1327093250941896E+001  2.6183929717663155E+000
       O  3.5699447637849415E+000  8.9313047333539242E+000  3.3049049645726485E+000
       O  3.5193843130543980E+000  1.2545350111880138E+001  3.6480707567829596E-001
       O  1.5512251065058711E+000  1.0056476634325753E+001  4.4483683732529382E+000
       O  4.1564607211073250E+000  1.0966451874917398E+001  4.9581338581410526E+000
       O -1.0024942110967123E+000  9.1894916265666353E+000  3.3106655065137209E+000
       O  6.7224685808963649E+000  1.0061218421126060E+001  2.3929663792347089E+000
       O  1.5456304558687148E+000  7.7092523736265539E+000  1.2098966278015473E+000
       O  1.9929924060982329E+000  5.8792999111416719E+000  9.2590914911781326E+000
       O  5.8223823367914678E+000  5.1397433965310944E+000  9.4512685869121249E+000
       O  3.6493500622163602E+000  7.8522988226324824E+000  9.4103307222550399E+000
       Ca  5.2245560286569290E+000  9.4686336025406366E+000  6.5872318294723122E+000
       Ca  1.9877899206455862E+000  6.2711532999273443E+000  6.9076572283682331E+000
       Ca  6.3037668049067177E+000  6.0457101582755790E+000  6.4305630422035538E+000
       Ca  1.0117494590707050E+000  9.8519320066058818E+000  6.6162234938858830E+000
       Si -1.4266085569096310E+000  5.0657599527797057E+000  8.3231324153484270E+000
       Si -2.1821346083566668E+000  1.0289706330556022E+001  6.4002630615641998E+000
       Si -1.0705342744483086E+000  7.3829743562154491E+000  6.3549976911712776E+000
       O -5.3362293538979459E+000  1.1520592221772402E+001  7.6873475361939390E+000
       O  4.1105359696864623E+000  5.2902418343336768E+000  6.6248294822636007E+000
       O -9.7420598043318052E-001  1.1194005215370627E+001  5.7915083427789185E+000
       O -3.3910580361230784E+000  1.0019896826161220E+001  5.3663274380545314E+000
       O -2.7425533240638966E+000  1.0862699313538599E+001  7.8340287151028782E+000
       O -9.0604024106552805E-001  6.5350720888801073E+000  7.7623923427286847E+000
       O -1.4443408183254858E+000  8.9013610568689963E+000  6.9191372215030666E+000
       O -1.4527447669189411E+000  5.0767692259446120E+000  9.9343243434842119E+000
       O  4.3714767462398502E-001  7.5696804122085286E+000  5.7815042878001330E+000
       O -2.2093396886287322E+000  6.7933753588770331E+000  5.3691100218997878E+000
       O  3.0315530130314574E+000  8.5046094146293125E+000  6.9135453637534212E+000
       O -4.2028945890572613E+000  7.8856958756478184E+000  7.9070578672624547E+000
       O  1.0187782270754024E+000  1.0666318406770246E+001  8.8209688666937183E+000
       O  7.9326015691227200E-002  1.2078928224025976E+001  1.0583614431000326E+000
       O -3.8067460281513199E+000  1.2442364570332556E+001  7.0234487653706268E-001
       O -1.4954002628620935E+000  9.9132651560555036E+000  7.1303416142335396E-001
       Ca -3.7817973368948916E+000  1.0209019546160901E+001  2.3576919841898976E-002
       H  3.1726826544547242E+000  8.6614927266460540E-001  5.9321485229584336E-001
       H  4.6628658014520745E+000  1.3585287626592195E+000  6.6066963596887351E-001
       H  5.1657154946435728E+000 -2.3307190061681043E-001  9.5258637675980147E+000
       H  5.0031877421659310E+000 -1.8446517411252821E+000  9.2871091110668349E+000
       H  8.1133227186718155E+000 -2.5849835610295329E+000  9.9853645653727856E+000
       H  9.0954227836967494E+000 -1.9729968108666767E+000  8.8723951428214569E+000
       H  5.6678438424891073E+000  1.8241671555221375E+000  9.9117576894270787E+000
       H  6.0080019446234694E+000  1.2223989708557796E+000  8.4171517679998420E+000
       H  3.8892235800425459E+000  3.2819047521746576E+000  9.6400492996181129E+000
       H  4.2367109142222272E+000  4.4454639052979070E+000  8.6849450547165095E+000
       H  1.9471827161618434E+000  4.5291469269504079E+000  6.4554699349118749E-001
       H  2.1164066653180593E+000  6.1129357068446728E+000  9.7024661243178290E-001
       H -2.0534138989363790E+000  5.8413301006765694E+000  1.3555322148671773E+000
       H -1.0198812012504721E+000  6.4521218685300967E+000  3.0670601807640963E-001
       H  1.0541139066335381E+000  2.8060976254648651E+000  1.6842017503203224E+000
       H  1.4141596442798809E+000  2.1977779554448169E+000  2.6453061291280727E-001
       H  7.0101872526973918E-001  7.7366521727276050E+000  5.8566205291025542E-001
       H  2.1895915318251209E+000  8.2243246030226373E+000  6.4484967029697093E-001
       H  2.6652992864131826E+000  6.6138696877180632E+000  9.4939658892451320E+000
       H  2.5116840057885916E+000  5.0070457601028000E+000  9.2447451837099592E+000
       H  5.6381790400815888E+000  4.2842668391838812E+000  9.9870003657593145E+000
       H  6.6228773335631903E+000  4.8934410249693325E+000  8.8746107847406410E+000
       H  3.1900891085924696E+000  8.6723233157097219E+000  9.9208809199420287E+000
       H  3.5379154954544942E+000  8.0753954163398660E+000  8.4325366852767250E+000
       H  1.4262682880586834E+000  1.0153290967422588E+001  9.6377536019946728E+000
       H  1.7642118657475261E+000  1.1317683187644086E+001  8.6795129530409110E+000
       H -5.2420363826956673E-001  1.1398948163022361E+001  6.4570703160839604E-001
       H -3.5655328493463395E-001  1.2981487367761137E+001  9.7411318925028978E-001
       H -4.5243489892120730E+000  1.2708442255144583E+001  1.3498961829300935E+000
       H -3.4925951777937274E+000  1.3319838717050366E+001  3.0061837910894806E-001
       H -1.4155021456013941E+000  9.6747067957377784E+000  1.6827968139630067E+000
       H -1.0570653358642235E+000  9.0660254866507355E+000  2.6387635204331589E-001
       H  5.6146859319013620E-001  5.3509678620584449E+000  4.4806250831834635E+000
       H  1.3449332568051668E+000  2.7068406864480381E+000  4.2073827279338119E+000
       H  1.0047364964275506E+001  3.6813802335923906E+000  2.3945633209966908E+000
       H  6.3965294425105821E+000 -1.3335846987539524E+000  5.6816857437186821E+000
       H  5.6953274532299343E+000  1.2391584988593531E+000  6.0293515016412647E+000
       H -8.0896373258305276E-001  1.3531749775067146E+000  7.9370597824814402E+000
       H -1.9089823230750471E+000  1.2223106945862513E+001  4.4824723486902540E+000
       H -1.1259216828251146E+000  9.5735973800369329E+000  4.2074715561157685E+000
       H  7.5763140728598861E+000  1.0552266282532711E+001  2.3921069897058151E+000
       H  3.9414136256409882E+000  5.5192935476237146E+000  5.6768458336911172E+000
       H  3.2304522130718119E+000  8.1258940425159700E+000  6.0261843133103268E+000
       H -3.2811006823336206E+000  8.2227586449271648E+000  7.9419923016736584E+000
     &END COORD
     &KIND "Ca"
       BASIS_SET "DZVP-MOLOPT-SR-GTH-q10"
       ELEMENT "Ca"
       POTENTIAL "GTH-PBE"
       &POTENTIAL
         4 6
           3.9000000000000001E-001 2 -4.1670722199999997E+000 -1.5837978100000001E+000
         3
           2.8935571999999998E-001 2  2.0531876350000001E+001 -7.1297857799999997E+000
                                                               9.2045138699999995E+000
           3.2788205999999998E-001 2  5.8056051300000000E+000 -4.2875335999999997E-001
                                                               5.0730781999999996E-001
           6.7961713000000001E-001 1  5.8068259999999997E-002
         # Potential name: GTH-PBE for element symbol: CA
         # Potential read from the potential filename: POTENTIAL
       &END POTENTIAL
     &END KIND
     &KIND "Si"
       BASIS_SET "DZVP-MOLOPT-SR-GTH-q4"
       ELEMENT "Si"
       POTENTIAL "GTH-PBE"
       &POTENTIAL
         2 2
           4.4000000000000000E-001 1 -6.2692883300000002E+000
         2
           4.3563383000000000E-001 2  8.9517415000000007E+000 -2.7062708199999999E+000
                                                               3.4937806000000000E+000
           4.9794218000000001E-001 1  2.4312767300000000E+000
         # Potential name: GTH-PBE for element symbol: SI
         # Potential read from the potential filename: POTENTIAL
       &END POTENTIAL
     &END KIND
     &KIND "O"
       BASIS_SET "DZVP-MOLOPT-SR-GTH-q6"
       ELEMENT "O"
       POTENTIAL "GTH-PBE"
       &POTENTIAL
         2 4
           2.4455430000000000E-001 2 -1.6667214800000000E+001  2.4873113199999999E+000
         2
           2.2095592000000000E-001 1  1.8337458110000000E+001
           2.1133246999999999E-001 0
         # Potential name: GTH-PBE for element symbol: O
         # Potential read from the potential filename: POTENTIAL
       &END POTENTIAL
     &END KIND
     &KIND "H"
       BASIS_SET "DZVP-MOLOPT-SR-GTH-q1"
       ELEMENT "H"
       POTENTIAL "GTH-PBE"
       &POTENTIAL
         1
           2.0000000000000001E-001 2 -4.1789004399999996E+000  7.2446330999999997E-001
         0
         # Potential name: GTH-PBE for element symbol: H
         # Potential read from the potential filename: POTENTIAL
       &END POTENTIAL
     &END KIND
     &TOPOLOGY
       COORD_FILE_NAME Jennite_init_121.xyz
       COORD_FILE_FORMAT XYZ
       NUMBER_OF_ATOMS 138
       MULTIPLE_UNIT_CELL 1 1 1
     &END TOPOLOGY
   &END SUBSYS
   &PRINT
     &FORCES ON
     &END FORCES
     &STRESS_TENSOR ON
     &END STRESS_TENSOR
   &END PRINT
 &END FORCE_EVAL
