 # Version information for this restart file 
 # current date 2025-01-16 04:54:45.114
 # current working dir /home/zkm/CP2K/Generate_dataset/Jennite/Elastic/elastic_cp2k/example/epsilonxx/pos
 # Program compiled at                2024年 10月 05日 星期六 13:00:57 CST
 # Program compiled on                                               ubuntu-GPU2
 # Program compiled for                                                    local
 # Source code revision number                                       git:6712648
 &GLOBAL
   PRINT_LEVEL LOW
   PROJECT_NAME "geoopt"
   RUN_TYPE GEO_OPT
 &END GLOBAL
 &MOTION
   &GEO_OPT
     OPTIMIZER BFGS
     MAX_ITER 1000
     MAX_DR  3.0000000000000001E-003
     MAX_FORCE  4.4999999999999999E-004
     RMS_DR  1.5000000000000000E-003
     RMS_FORCE  2.9999999999999997E-004
     STEP_START_VAL 73
     KEEP_SPACE_GROUP F
     &BFGS
       TRUST_RADIUS  2.0000000000000001E-001
     &END BFGS
   &END GEO_OPT
   &PRINT
     &TRAJECTORY SILENT
       FORMAT XMOL
     &END TRAJECTORY
     &CELL SILENT
     &END CELL
     &RESTART SILENT
       BACKUP_COPIES 0
     &END RESTART
     &RESTART_HISTORY OFF
     &END RESTART_HISTORY
   &END PRINT
 &END MOTION
 &FORCE_EVAL
   METHOD QS
   STRESS_TENSOR ANALYTICAL
   &DFT
     BASIS_SET_FILE_NAME BASIS_MOLOPT
     POTENTIAL_FILE_NAME POTENTIAL
     MULTIPLICITY 1
     CHARGE 0
     &SCF
       MAX_SCF 25
       EPS_SCF  9.9999999999999995E-008
       IGNORE_CONVERGENCE_FAILURE T
       &OT T
         ALGORITHM STRICT
         MINIMIZER DIIS
         LINESEARCH 2PNT
         PRECONDITIONER FULL_KINETIC
       &END OT
       &OUTER_SCF T
         EPS_SCF  9.9999999999999995E-008
         MAX_SCF 20
       &END OUTER_SCF
       &PRINT
         &RESTART SILENT
           BACKUP_COPIES 0
         &END RESTART
       &END PRINT
     &END SCF
     &QS
       EPS_DEFAULT  9.9999999999999998E-013
     &END QS
     &MGRID
       NGRIDS 4
       CUTOFF  5.0000000000000000E+002
       REL_CUTOFF  7.0000000000000000E+001
     &END MGRID
     &XC
       DENSITY_CUTOFF  1.0000000000000000E-010
       GRADIENT_CUTOFF  1.0000000000000000E-010
       TAU_CUTOFF  1.0000000000000000E-010
       &XC_FUNCTIONAL NO_SHORTCUT
         &PBE T
           PARAMETRIZATION PBESOL
         &END PBE
       &END XC_FUNCTIONAL
       &VDW_POTENTIAL
         POTENTIAL_TYPE PAIR_POTENTIAL
         &PAIR_POTENTIAL
           TYPE DFTD3(BJ)
           PARAMETER_FILE_NAME dftd3.dat
           REFERENCE_FUNCTIONAL "PBEsol"
         &END PAIR_POTENTIAL
       &END VDW_POTENTIAL
     &END XC
     &POISSON
       POISSON_SOLVER PERIODIC
       PERIODIC XYZ
     &END POISSON
   &END DFT
   &SUBSYS
     &CELL
       A  1.0687663244300001E+001  0.0000000000000000E+000  0.0000000000000000E+000
       B -4.9917785943000004E+000  1.3738964779500000E+001  0.0000000000000000E+000
       C -9.6615819420000015E-001 -2.7547349881000005E+000  1.0163400995300002E+001
       PERIODIC XYZ
       MULTIPLE_UNIT_CELL 1 1 1
     &END CELL
     &COORD
       Ca -7.4710137919441622E-001  1.3849806813411154E+000  3.6771223013803498E+000
       Ca  2.5817740427741138E+000  4.5710020566075666E+000  3.2942786356081770E+000
       Ca -1.8944821112939421E+000  4.8561400425703054E+000  3.9454373424895359E+000
       Ca  3.4668581733960040E+000  9.1088893601156440E-001  3.5261446879914509E+000
       Si  6.0068082060339929E+000  5.8140216826660298E+000  1.9715744899622238E+000
       Si  6.7923522280552264E+000  6.6886530845324244E-001  3.7524511334593891E+000
       Si  5.5872255202779080E+000  3.4822054238318652E+000  3.9297623664029917E+000
       O  4.9705201990777175E+000  1.3023619681411693E+001  2.6011908064343592E+000
       O  3.6111149514446439E-001  5.4993438103449543E+000  3.5352573900548760E+000
       O  5.5724153475030720E+000 -2.7057863675139349E-001  4.2964198253510180E+000
       O  7.9433364762688621E+000  8.7099050626872621E-001  4.8878939426118366E+000
       O  7.4917283082185273E+000  2.0022921706399238E-001  2.3344130396383855E+000
       O  5.2692269644699188E+000  4.5046270881998902E+000  2.6711315697492295E+000
       O  6.1152535395571865E+000  2.0820353636020803E+000  3.2469244138482147E+000
       O  6.0524187364046274E+000  5.6586194306837685E+000  3.6532149359955074E-001
       O  4.0852706568399570E+000  3.1295700136069318E+000  4.4487801463115826E+000
       O  6.6889597938311072E+000  4.0861623338136503E+000  4.9572591107754143E+000
       O  1.4855872465550795E+000  2.3170629456903615E+000  3.3107480861165373E+000
       O -1.3974402416174856E+000  3.1931814341962244E+000  2.3909240274423551E+000
       O  3.9956722376541363E+000  8.3520094680679258E-001  1.2192076709542155E+000
       O  4.5013192628101271E+000 -1.0131541813675080E+000  9.3192343538541440E+000
       O  8.3790913168532555E+000 -1.7339665456603082E+000  9.4500003635547589E+000
       O  6.1588965595873661E+000  9.6065679691676986E-001  9.3978437649170310E+000
       Ca  7.7505326372752830E+000  2.5840243925134563E+000  6.5715107779646402E+000
       Ca  4.4561738102161321E+000 -6.0167765317913557E-001  6.9586251581187968E+000
       Ca  8.8501799487563861E+000 -8.2724263640849671E-001  6.4114422554066124E+000
       Ca  3.4974484745566681E+000  3.0009868921073677E+000  6.6058593986745056E+000
       Si  1.0410082756954768E+000 -1.8084616719589364E+000  8.3114026525286278E+000
       Si  2.7449047261363269E-001  3.4140108324871865E+000  6.4040062655697882E+000
       Si  1.4117727974547065E+000  5.1376794783726887E-001  6.3512140318607111E+000
       O -2.8920272492787382E+000  4.6495053696450759E+000  7.6842258339422731E+000
       O  6.6170972299964470E+000 -1.5226528831973871E+000  6.6238446512208116E+000
       O  1.4758727310542146E+000  4.3295598951249223E+000  5.7943918360186277E+000
       O -9.3594116562571106E-001  3.1467245074104930E+000  5.3696213259685477E+000
       O -2.8690041786669990E-001  3.9898385822648370E+000  7.8355428126775051E+000
       O  1.5795204409433066E+000 -3.4130694688845131E-001  7.7560878106494515E+000
       O  1.0336673795437599E+000  2.0325854182296212E+000  6.9163114783277582E+000
       O  1.0089747670157254E+000 -1.7903662872621344E+000  9.9216548342483932E+000
       O  2.9262354516451849E+000  6.9782373377741636E-001  5.7866130419318100E+000
       O  2.6694177992192936E-001 -7.5496916262014394E-002  5.3679916652178372E+000
       O  5.4996485142681264E+000  1.6356317213003873E+000  6.9116183462225447E+000
       O -1.7568950688560288E+000  1.0137322865201628E+000  7.9014695067164613E+000
       O  3.5304747207034550E+000  3.7952334538712869E+000  8.8222580294355630E+000
       O  2.5717499651286135E+000  5.2077214067179440E+000  1.0585561056884383E+000
       O -1.3579710330641095E+000  5.5736892763940524E+000  7.0376881491676480E-001
       O  9.7880043543780293E-001  3.0489150403182115E+000  7.1260555671866432E-001
       Ca  9.3535512297973664E+000  3.3377787647364618E+000  2.0478629617946689E-002
       Ca -3.2433973184706488E+000  8.2537005522146583E+000  3.6771664471536472E+000
       Ca  8.7571328753290545E-002  1.1439737416580533E+001  3.2924513720138653E+000
       Ca -4.3904301154480097E+000  1.1726198391552117E+001  3.9449323383803945E+000
       Ca  9.6649917656370232E-001  7.7800499009915072E+000  3.5449288000513404E+000
       Si  3.5101701673589889E+000  1.2683890974089218E+001  1.9713661772436506E+000
       Si  4.2963448776061224E+000  7.5380465273959905E+000  3.7523357932964454E+000
       Si  3.0914404417130941E+000  1.0351403307831065E+001  3.9293747637473695E+000
       O  7.4671182009382422E+000  6.1542425925095428E+000  2.6016226229838599E+000
       O -2.1342801005555199E+000  1.2369554162041016E+001  3.5336985855697698E+000
       O  3.0768225538043001E+000  6.5987262039599912E+000  4.2975410748128180E+000
       O  5.4474907015640817E+000  7.7399223646349808E+000  4.8878264598305119E+000
       O  4.9960767518440532E+000  7.0694805775930334E+000  2.3342854255897110E+000
       O  2.7729911763248620E+000  1.1373888044929002E+001  2.6706286766635139E+000
       O  3.6197372285628959E+000  8.9513801648323614E+000  3.2468131755354213E+000
       O  3.5548254277907643E+000  1.2529616768413881E+001  3.6491330538194511E-001
       O  1.5896541737969998E+000  9.9991771984400781E+000  4.4493257063147080E+000
       O  4.1932116184009320E+000  1.0955935035298866E+001  4.9560350505602981E+000
       O -1.0118247895155650E+000  9.1887942368803781E+000  3.3119722647167782E+000
       O -3.8931624621586369E+000  1.0062675880786852E+001  2.3907304344185571E+000
       O  1.4949194606670673E+000  7.6944188746893545E+000  1.2577099607913407E+000
       O  2.0027010741300719E+000  5.8551756785375009E+000  9.3234552445717398E+000
       O  5.8834618183116927E+000  5.1357064466457159E+000  9.4501273576651119E+000
       O  3.6630646718240434E+000  7.8303261354631264E+000  9.3978935341023764E+000
       Ca  5.2538567898476236E+000  9.4529917881891077E+000  6.5694862073703977E+000
       Ca  1.9587069598864975E+000  6.2652335525730773E+000  6.9651695325305116E+000
       Ca  6.3549299403202628E+000  6.0411012996400002E+000  6.4130846074542118E+000
       Ca  1.0019824078977442E+000  9.8704135017041015E+000  6.6065257996946736E+000
       Si -1.4508602170157390E+000  5.0598045854214364E+000  8.3193220623214259E+000
       Si -2.2214096474831062E+000  1.0283635694310382E+001  6.4040111265435531E+000
       Si -1.0854830605185630E+000  7.3824568642223918E+000  6.3549651805034681E+000
       O -5.3912790103818455E+000  1.1519043470927214E+001  7.6776039944112071E+000
       O  4.1209985118779944E+000  5.3471580251753181E+000  6.6238987384320689E+000
       O -1.0201186657771244E+000  1.1198915609602755E+001  5.7942278248237704E+000
       O -3.4313049561709570E+000  1.0016094258835775E+001  5.3690412739941973E+000
       O -2.7842830700715155E+000  1.0859562603422678E+001  7.8351035397744946E+000
       O -9.1683432114258312E-001  6.5278345763128147E+000  7.7598943999260586E+000
       O -1.4625526648974674E+000  8.9022452099005029E+000  6.9171947981427540E+000
       O -1.4743799544011866E+000  5.0744083639789110E+000  9.9312720589625361E+000
       O  4.2961116214772838E-001  7.5664738114141619E+000  5.7912550201487036E+000
       O -2.2284833990840816E+000  6.7936833870653901E+000  5.3691997158660065E+000
       O  3.0039860968752827E+000  8.5040351926332871E+000  6.9119782263481282E+000
       O -4.2530438741142707E+000  7.8832214311461835E+000  7.9013258683492467E+000
       O  1.0345136289021295E+000  1.0665160447006798E+001  8.8222575993889976E+000
       O  7.4731912872947878E-002  1.2079271637614152E+001  1.0582546020530830E+000
       O -3.8532634633187746E+000  1.2444246928087153E+001  7.0351839593340670E-001
       O -1.5161688221555065E+000  9.9166177966710638E+000  7.1266806165143926E-001
       Ca  6.8577404122754135E+000  1.0207519948218399E+001  2.0081806362365794E-002
       H  3.1592666164943628E+000  8.6500611193957622E-001  5.8487204732545839E-001
       H  4.6562422318875480E+000  1.3390368861405870E+000  6.6084852542945038E-001
       H  5.1774763903205026E+000 -2.7543527679767321E-001  9.5316434337646374E+000
       H  5.0273235983163636E+000 -1.8798977299639781E+000  9.2923493956752203E+000
       H  8.1930812488633631E+000 -2.5918616022211958E+000  9.9794877012540422E+000
       H  9.1824326332259627E+000 -1.9759024610489573E+000  8.8764811701544115E+000
       H  5.7072086587297530E+000  1.7811042063173328E+000  9.9148844726190895E+000
       H  6.0350489514242973E+000  1.1868774244545242E+000  8.4221255240113422E+000
       H  3.9461436260963061E+000  3.2776067378350060E+000  9.6319927431020247E+000
       H  4.2659540782508589E+000  4.4569440525825055E+000  8.6834497771727897E+000
       H  1.9653445121580906E+000  4.5210950159750238E+000  6.5770789072103841E-001
       H  2.1087615788849923E+000  6.0971987791791014E+000  9.9545101943561565E-001
       H -2.0900020641226273E+000  5.8384358103556808E+000  1.3348409236054539E+000
       H -1.0409323656854099E+000  6.4508476559137780E+000  3.0036176495418965E-001
       H  1.0599342687945437E+000  2.8110237882482236E+000  1.6833974799840081E+000
       H  1.4132394691278543E+000  2.2039999621366313E+000  2.6062028691792960E-001
       H  6.6601392374023927E-001  7.7269074200282839E+000  6.1079565127454061E-001
       H  2.1598102646014379E+000  8.2007917943809563E+000  7.0934062833525602E-001
       H  2.6790037546051919E+000  6.5916271914596249E+000  9.5355686350591871E+000
       H  2.5275783404456238E+000  4.9885416629120494E+000  9.2984986403569021E+000
       H  5.6980859991345358E+000  4.2779000473062343E+000  9.9794498643140734E+000
       H  6.6876199869448056E+000  4.8939622833487961E+000  8.8770241857897094E+000
       H  3.2113060881217250E+000  8.6500205920010735E+000  9.9138348117636301E+000
       H  3.5388190849392314E+000  8.0562667855959269E+000  8.4218244715418074E+000
       H  1.4496652372762884E+000  1.0147962267795112E+001  9.6333053762857919E+000
       H  1.7711492746291491E+000  1.1325708666157464E+001  8.6832077351689563E+000
       H -5.3123881964425701E-001  1.1393172242056197E+001  6.5638020430048016E-001
       H -3.8266053805405559E-001  1.2971681435921875E+001  9.8350588518472626E-001
       H -4.5859825705216934E+000  1.2708306916842538E+001  1.3341516811005341E+000
       H -3.5410000351110305E+000  1.3321485694278012E+001  2.9654678793124584E-001
       H -1.4363191155142985E+000  9.6802858415004973E+000  1.6843506865118114E+000
       H -1.0781235404616298E+000  9.0723926059878046E+000  2.6482795173800383E-001
       H  5.7890745717117142E-001  5.2677558876755048E+000  4.4742237479256541E+000
       H  1.3363030329212309E+000  2.7165120032125682E+000  4.1967888428820403E+000
       H -5.4596270415299386E-001  3.6909068771869409E+000  2.3962518845583523E+000
       H  6.4391667982131811E+000 -1.2444152541837685E+000  5.6881046313456824E+000
       H  5.6687004279822419E+000  1.2676280913953906E+000  6.0131497238114866E+000
       H -8.3656198750253075E-001  1.3542457282735252E+000  7.9340341150085472E+000
       H -1.9159179861364815E+000  1.2142142310383687E+001  4.4734444162618363E+000
       H -1.1711341446356058E+000  9.5961331310085587E+000  4.1927951281426488E+000
       H -3.0412760336158740E+000  1.0559636429348526E+001  2.3965002766092121E+000
       H  3.9416457367083035E+000  5.6270122509138245E+000  5.6887345071320965E+000
       H  3.1774851257039249E+000  8.1292325910683250E+000  6.0170645595317147E+000
       H -3.3333240284976617E+000  8.2252653053876124E+000  7.9340180503188327E+000
     &END COORD
     &KIND "Ca"
       BASIS_SET "DZVP-MOLOPT-SR-GTH-q10"
       ELEMENT "Ca"
       POTENTIAL "GTH-PBE"
       &POTENTIAL
         4 6
           3.9000000000000001E-001 2 -4.1670722199999997E+000 -1.5837978100000001E+000
         3
           2.8935571999999998E-001 2  2.0531876350000001E+001 -7.1297857799999997E+000
                                                               9.2045138699999995E+000
           3.2788205999999998E-001 2  5.8056051300000000E+000 -4.2875335999999997E-001
                                                               5.0730781999999996E-001
           6.7961713000000001E-001 1  5.8068259999999997E-002
         # Potential name: GTH-PBE for element symbol: CA
         # Potential read from the potential filename: POTENTIAL
       &END POTENTIAL
     &END KIND
     &KIND "Si"
       BASIS_SET "DZVP-MOLOPT-SR-GTH-q4"
       ELEMENT "Si"
       POTENTIAL "GTH-PBE"
       &POTENTIAL
         2 2
           4.4000000000000000E-001 1 -6.2692883300000002E+000
         2
           4.3563383000000000E-001 2  8.9517415000000007E+000 -2.7062708199999999E+000
                                                               3.4937806000000000E+000
           4.9794218000000001E-001 1  2.4312767300000000E+000
         # Potential name: GTH-PBE for element symbol: SI
         # Potential read from the potential filename: POTENTIAL
       &END POTENTIAL
     &END KIND
     &KIND "O"
       BASIS_SET "DZVP-MOLOPT-SR-GTH-q6"
       ELEMENT "O"
       POTENTIAL "GTH-PBE"
       &POTENTIAL
         2 4
           2.4455430000000000E-001 2 -1.6667214800000000E+001  2.4873113199999999E+000
         2
           2.2095592000000000E-001 1  1.8337458110000000E+001
           2.1133246999999999E-001 0
         # Potential name: GTH-PBE for element symbol: O
         # Potential read from the potential filename: POTENTIAL
       &END POTENTIAL
     &END KIND
     &KIND "H"
       BASIS_SET "DZVP-MOLOPT-SR-GTH-q1"
       ELEMENT "H"
       POTENTIAL "GTH-PBE"
       &POTENTIAL
         1
           2.0000000000000001E-001 2 -4.1789004399999996E+000  7.2446330999999997E-001
         0
         # Potential name: GTH-PBE for element symbol: H
         # Potential read from the potential filename: POTENTIAL
       &END POTENTIAL
     &END KIND
     &TOPOLOGY
       COORD_FILE_NAME coord.xyz
       COORD_FILE_FORMAT XYZ
       NUMBER_OF_ATOMS 138
       MULTIPLE_UNIT_CELL 1 1 1
     &END TOPOLOGY
   &END SUBSYS
   &PRINT
     &FORCES ON
     &END FORCES
     &STRESS_TENSOR ON
     &END STRESS_TENSOR
   &END PRINT
 &END FORCE_EVAL
