 # Version information for this restart file 
 # current date 2025-01-16 05:18:24.007
 # current working dir /home/zkm/CP2K/Generate_dataset/Jennite/Elastic/elastic_cp2k/example/epsilonxx/neg
 # Program compiled at                2024年 10月 05日 星期六 13:00:57 CST
 # Program compiled on                                               ubuntu-GPU2
 # Program compiled for                                                    local
 # Source code revision number                                       git:6712648
 &GLOBAL
   PRINT_LEVEL LOW
   PROJECT_NAME "geoopt"
   RUN_TYPE GEO_OPT
 &END GLOBAL
 &MOTION
   &GEO_OPT
     OPTIMIZER BFGS
     MAX_ITER 1000
     MAX_DR  3.0000000000000001E-003
     MAX_FORCE  4.4999999999999999E-004
     RMS_DR  1.5000000000000000E-003
     RMS_FORCE  2.9999999999999997E-004
     STEP_START_VAL 36
     KEEP_SPACE_GROUP F
     &BFGS
       TRUST_RADIUS  2.0000000000000001E-001
     &END BFGS
   &END GEO_OPT
   &PRINT
     &TRAJECTORY SILENT
       FORMAT XMOL
     &END TRAJECTORY
     &CELL SILENT
     &END CELL
     &RESTART SILENT
       BACKUP_COPIES 0
     &END RESTART
     &RESTART_HISTORY OFF
     &END RESTART_HISTORY
   &END PRINT
 &END MOTION
 &FORCE_EVAL
   METHOD QS
   STRESS_TENSOR ANALYTICAL
   &DFT
     BASIS_SET_FILE_NAME BASIS_MOLOPT
     POTENTIAL_FILE_NAME POTENTIAL
     MULTIPLICITY 1
     CHARGE 0
     &SCF
       MAX_SCF 25
       EPS_SCF  9.9999999999999995E-008
       IGNORE_CONVERGENCE_FAILURE T
       &OT T
         ALGORITHM STRICT
         MINIMIZER DIIS
         LINESEARCH 2PNT
         PRECONDITIONER FULL_KINETIC
       &END OT
       &OUTER_SCF T
         EPS_SCF  9.9999999999999995E-008
         MAX_SCF 20
       &END OUTER_SCF
       &PRINT
         &RESTART SILENT
           BACKUP_COPIES 0
         &END RESTART
       &END PRINT
     &END SCF
     &QS
       EPS_DEFAULT  9.9999999999999998E-013
     &END QS
     &MGRID
       NGRIDS 4
       CUTOFF  5.0000000000000000E+002
       REL_CUTOFF  7.0000000000000000E+001
     &END MGRID
     &XC
       DENSITY_CUTOFF  1.0000000000000000E-010
       GRADIENT_CUTOFF  1.0000000000000000E-010
       TAU_CUTOFF  1.0000000000000000E-010
       &XC_FUNCTIONAL NO_SHORTCUT
         &PBE T
           PARAMETRIZATION PBESOL
         &END PBE
       &END XC_FUNCTIONAL
       &VDW_POTENTIAL
         POTENTIAL_TYPE PAIR_POTENTIAL
         &PAIR_POTENTIAL
           TYPE DFTD3(BJ)
           PARAMETER_FILE_NAME dftd3.dat
           REFERENCE_FUNCTIONAL "PBEsol"
         &END PAIR_POTENTIAL
       &END VDW_POTENTIAL
     &END XC
     &POISSON
       POISSON_SOLVER PERIODIC
       PERIODIC XYZ
     &END POISSON
   &END DFT
   &SUBSYS
     &CELL
       A  1.0476026348300001E+001  0.0000000000000000E+000  0.0000000000000000E+000
       B -4.8929314934999999E+000  1.3738964779500000E+001  0.0000000000000000E+000
       C -9.4702634880000014E-001 -2.7547349881000005E+000  1.0163400995300002E+001
       PERIODIC XYZ
       MULTIPLE_UNIT_CELL 1 1 1
     &END CELL
     &COORD
       Ca -7.1095020929734465E-001  1.3869331548871491E+000  3.6728732461173523E+000
       Ca  2.5402614507488561E+000  4.5875219393972149E+000  3.2736557469215892E+000
       Ca -1.8475717573860448E+000  4.8461042680157238E+000  3.9622714659719769E+000
       Ca  3.4178761869676157E+000  9.2085382010318950E-001  3.5416615829460469E+000
       Si  5.9095272299944606E+000  5.8373958369904431E+000  1.9706577944194810E+000
       Si  6.6590613961145229E+000  6.8320087410835062E-001  3.7469669718339897E+000
       Si  5.4743848446157362E+000  3.5077251861179581E+000  3.9249643108888872E+000
       O  4.9063568276926874E+000  1.3032338782471093E+001  2.6115567727755615E+000
       O  3.5672394977820687E-001  5.5031371213536371E+000  3.5385033789407130E+000
       O  5.4584057438074263E+000 -2.6668446587183720E-001  4.2929421799749017E+000
       O  7.7996503092012670E+000  8.7725564974862202E-001  4.8876429424166545E+000
       O  7.3440314950784105E+000  2.0842248246510656E-001  2.3260081624737965E+000
       O  5.1444358671930122E+000  4.5531454966179874E+000  2.6820046107156967E+000
       O  5.9875394485123952E+000  2.1017146250718972E+000  3.2419198164564778E+000
       O  5.9833861883693560E+000  5.6610631364914425E+000  3.7202078467849314E-001
       O  3.9800584103904666E+000  3.1723600532594314E+000  4.4523358950713012E+000
       O  6.5659939278046169E+000  4.0942914061440883E+000  4.9642108540409087E+000
       O  1.4600860576024366E+000  2.3179606239581636E+000  3.3101623582953543E+000
       O -1.3716869680074073E+000  3.1920818102642183E+000  2.3914148137961213E+000
       O  3.9711548996668520E+000  8.2269356993597165E-001  1.2651969189165626E+000
       O  4.4735121864349550E+000 -1.0314898962190908E+000  9.3911408501387061E+000
       O  8.2205434138446289E+000 -1.7268931920134525E+000  9.4502949021048952E+000
       O  6.0910051560050862E+000  9.6246053946706034E-001  9.3944922701008924E+000
       Ca  7.6083261437449137E+000  2.5885414699873270E+000  6.5746704164247891E+000
       Ca  4.3593722526334524E+000 -6.3016465082493567E-001  7.0376860088370687E+000
       Ca  8.6882766806455063E+000 -8.0920234004708347E-001  6.4035600655644567E+000
       Ca  3.4776848070871633E+000  3.0057142927547034E+000  6.6177027748692963E+000
       Si  1.0604231050724646E+000 -1.8187367622153028E+000  8.3252777508033695E+000
       Si  3.0431426303795700E-001  3.4024987058493577E+000  6.4043088077894446E+000
       Si  1.4346230289252191E+000  5.0246867688537356E-001  6.3571957407850785E+000
       O -2.8317155357806771E+000  4.6452789369412040E+000  7.6850314241009103E+000
       O  6.4910938385132111E+000 -1.5182696328662570E+000  6.6268888241342152E+000
       O  1.4992622293931626E+000  4.3183001480091114E+000  5.7944873589630044E+000
       O -9.0673943256046596E-001  3.1455087896687934E+000  5.3733521481190980E+000
       O -2.1972718633601968E-001  3.9894193188021196E+000  7.8451064097462941E+000
       O  1.6415069484385505E+000 -3.7415341742878205E-001  7.7488145936857471E+000
       O  1.0327138862043055E+000  2.0083828386478553E+000  6.9288605299579968E+000
       O  1.0143112323756069E+000 -1.7945226117697319E+000  9.9335161584668494E+000
       O  2.9397754458491652E+000  7.0112425263258893E-001  5.7908683544628481E+000
       O  3.0687648784030147E-001 -8.4312229108228040E-002  5.3659538831762132E+000
       O  5.4510071709657151E+000  1.6269834693082275E+000  6.9177061106584965E+000
       O -1.7069675360761578E+000  1.0144969104276098E+000  7.9023240085074216E+000
       O  3.5117427743568999E+000  3.7974904928505540E+000  8.8202297627073136E+000
       O  2.5320518482501990E+000  5.2154108998773143E+000  1.0525044393427720E+000
       O -1.3183444775739601E+000  5.5706928637354656E+000  7.0119726164168694E-001
       O  1.0152594182638603E+000  3.0535460474677962E+000  7.2630329698167118E-001
       Ca  9.2125650998050777E+000  3.3433107465148475E+000  2.7866102741179045E-002
       Ca -3.1720790403537045E+000  8.2545847114797084E+000  3.6718665008044682E+000
       Ca  9.1112659597878246E-002  1.1455724723223620E+001  3.2764335186268707E+000
       Ca -4.2916950560206608E+000  1.1715895849037102E+001  3.9579505590719024E+000
       Ca  9.6893441058061014E-001  7.7904933991289091E+000  3.5418501108085856E+000
       Si  3.4573269042308987E+000  1.2690318078331483E+001  1.9699688243812190E+000
       Si  4.2218302646740486E+000  7.5503095810893317E+000  3.7566005025485816E+000
       Si  3.0320657009366836E+000  1.0367613568970299E+001  3.9268508835478446E+000
       O  7.3620705833193290E+000  6.1601324520278844E+000  2.6109396289352942E+000
       O -2.0887480969976044E+000  1.2373735980438743E+001  3.5375738004894850E+000
       O  3.0145693520063999E+000  6.5981279595877780E+000  4.2822856573779102E+000
       O  5.3412290493739194E+000  7.7361443818322746E+000  4.9223256889036131E+000
       O  4.9454961241647206E+000  7.1294372831794348E+000  2.3329619234851275E+000
       O  2.7210939029160333E+000  1.1377290476145429E+001  2.6549010956279555E+000
       O  3.5430091473467682E+000  8.9609181343106190E+000  3.2512181012988539E+000
       O  3.5382445860305856E+000  1.2535657857381766E+001  3.6847130916700582E-001
       O  1.5341189942079401E+000  1.0044456652243875E+001  4.4526395082874819E+000
       O  4.1198848380703623E+000  1.0965216586676199E+001  4.9643549148470347E+000
       O -9.8975900773366188E-001  9.1880963820819428E+000  3.3086452908937583E+000
       O -3.8226676491318661E+000  1.0062631752260565E+001  2.3915828399661736E+000
       O  1.5170218093504040E+000  7.6905566324097423E+000  1.2689801078218765E+000
       O  1.9673762834074700E+000  5.8350856787475038E+000  9.3861234263933433E+000
       O  5.7699137105190834E+000  5.1391365390705523E+000  9.4513195737495312E+000
       O  3.5851307604637466E+000  7.8232207305865575E+000  9.3927890739309650E+000
       Ca  5.1642774275070673E+000  9.4612780892431196E+000  6.5825340901213396E+000
       Ca  1.9025397237618202E+000  6.2389978307893443E+000  7.0262033844475527E+000
       Ca  6.2361292309362666E+000  6.0568675647571641E+000  6.4174061862554508E+000
       Ca  1.0228637149890711E+000  9.8705516696824329E+000  6.6141267225666045E+000
       Si -1.3948350812573087E+000  5.0468850927058977E+000  8.3268744758817554E+000
       Si -2.1447702687984980E+000  1.0277976138569786E+001  6.4014902727326755E+000
       Si -1.0411632969717644E+000  7.3736713667274350E+000  6.3531052601538383E+000
       O -5.2722274447814517E+000  1.1524729037184452E+001  7.6831165349229522E+000
       O  4.0405481622088777E+000  5.3516488547112226E+000  6.6276124241609438E+000
       O -9.4874010226104688E-001  1.1194364434936340E+001  5.7943769482221805E+000
       O -3.3555016647061477E+000  1.0017406371713713E+001  5.3715355545064671E+000
       O -2.6668048725056108E+000  1.0853935312023166E+001  7.8472755099371412E+000
       O -8.5526891932319693E-001  6.5029149301373144E+000  7.7481575231132087E+000
       O -1.4178681327667784E+000  8.8857479967162281E+000  6.9240270741795094E+000
       O -1.4353674123731541E+000  5.0736342204476150E+000  9.9349423950454590E+000
       O  4.6751769950623856E-001  7.5633048300658041E+000  5.7890495013663870E+000
       O -2.1805972339388231E+000  6.7906192061144850E+000  5.3688521914882381E+000
       O  3.0012482658375079E+000  8.4961588265944528E+000  6.9156617895001542E+000
       O -4.1596755859320576E+000  7.8849827741862182E+000  7.9074935328663312E+000
       O  1.0721934755099303E+000  1.0662306324120305E+001  8.8171558956959544E+000
       O  8.0972930131536280E-002  1.2077976703663861E+001  1.0516621188892594E+000
       O -3.7674902760100735E+000  1.2440166773326130E+001  7.0070514443834986E-001
       O -1.4772265623572938E+000  9.9133562802100634E+000  7.1367689295402570E-001
       Ca  6.7232121971473990E+000  1.0206894200899789E+001  2.6675746920565756E-002
       H  3.1443106899857840E+000  8.5624987546797127E-001  6.2513527467498953E-001
       H  4.6388580761016129E+000  1.3221093790519152E+000  7.0602000228846751E-001
       H  5.1466403737286699E+000 -2.8282945193241665E-001  9.5728090129090084E+000
       H  5.0040328365882942E+000 -1.8961268191759799E+000  9.3319997894294389E+000
       H  8.0745676407106188E+000 -2.5818062649812124E+000  9.9968405989929305E+000
       H  9.0165220948607825E+000 -1.9616500418979710E+000  8.8590126587719809E+000
       H  5.6465102337738839E+000  1.7821511920376898E+000  9.9138448336159204E+000
       H  5.9623201364515710E+000  1.1826872202512964E+000  8.4154994345853211E+000
       H  3.9026982844421223E+000  3.2680885838331171E+000  9.6309389161478869E+000
       H  4.2563661142845550E+000  4.4618629254864013E+000  8.7192706890472280E+000
       H  1.9348072805585008E+000  4.5212746740785832E+000  6.5207367108224901E-001
       H  2.0746986435125629E+000  6.1090212585463917E+000  9.9159908095947158E-001
       H -2.0216501093341002E+000  5.8326527630320752E+000  1.3668628139219192E+000
       H -1.0099040037775489E+000  6.4496716476490521E+000  3.0056875858163051E-001
       H  1.0871277231819023E+000  2.8119411717312870E+000  1.6982778774016043E+000
       H  1.4362186295307773E+000  2.2009365888713197E+000  2.7214287928131026E-001
       H  6.8706304248889905E-001  7.7228027854513703E+000  6.3188665687550083E-001
       H  2.1751620728003331E+000  8.1942222276985870E+000  7.0239694179654089E-001
       H  2.6367531704611249E+000  6.5913069370996444E+000  9.5653090075505105E+000
       H  2.5098993146426194E+000  4.9785411752687594E+000  9.3294174036512025E+000
       H  5.6230101939977191E+000  4.2825788026616447E+000  9.9962471279650984E+000
       H  6.5657663682616541E+000  4.9027933561283685E+000  8.8599498486512758E+000
       H  3.1598288126936169E+000  8.6551798342926869E+000  9.9148898905036340E+000
       H  3.4762780442338066E+000  8.0525141408243250E+000  8.4122802448425098E+000
       H  1.4662867768595214E+000  1.0137338136489086E+001  9.6312859641796145E+000
       H  1.8195182550486282E+000  1.1322550784919018E+001  8.7072923050764945E+000
       H -5.2515152671971133E-001  1.1394674047557670E+001  6.4743132270552872E-001
       H -3.6689462763460912E-001  1.2976398447787039E+001  9.9079044682442274E-001
       H -4.4729922780506124E+000  1.2706656254128418E+001  1.3618662785458728E+000
       H -3.4551357769356530E+000  1.3316925019373150E+001  2.9884730542982491E-001
       H -1.3926513359049593E+000  9.6772279244300048E+000  1.6850634997850926E+000
       H -1.0421624014449020E+000  9.0669509855498625E+000  2.6355830065992047E-001
       H  5.8933086019978687E-001  5.2971426490902420E+000  4.4796502548741124E+000
       H  1.3442353748577367E+000  2.7374250227562742E+000  4.1922996604021359E+000
       H -5.2057102283429535E-001  3.6892392241586687E+000  2.4041208390398419E+000
       H  6.2925161261049354E+000 -1.2579810523650772E+000  5.6897466261420107E+000
       H  5.6048392690373712E+000  1.1955778133233153E+000  6.0443003646065678E+000
       H -7.8559039656570540E-001  1.3541734598577522E+000  7.9226191422002250E+000
       H -1.8572770894004333E+000  1.2171294283035177E+001  4.4799235729938083E+000
       H -1.1146189022860669E+000  9.6049192623717641E+000  4.1905744995471075E+000
       H -2.9712487989497545E+000  1.0558669987879711E+001  2.3941591935436883E+000
       H  3.8469255064935797E+000  5.6117092036735858E+000  5.6894540115028889E+000
       H  3.1844464332850930E+000  8.0566256914679339E+000  6.0522334470254036E+000
       H -3.2386587271854244E+000  8.2236298140005122E+000  7.9444247422599084E+000
     &END COORD
     &KIND "Ca"
       BASIS_SET "DZVP-MOLOPT-SR-GTH-q10"
       ELEMENT "Ca"
       POTENTIAL "GTH-PBE"
       &POTENTIAL
         4 6
           3.9000000000000001E-001 2 -4.1670722199999997E+000 -1.5837978100000001E+000
         3
           2.8935571999999998E-001 2  2.0531876350000001E+001 -7.1297857799999997E+000
                                                               9.2045138699999995E+000
           3.2788205999999998E-001 2  5.8056051300000000E+000 -4.2875335999999997E-001
                                                               5.0730781999999996E-001
           6.7961713000000001E-001 1  5.8068259999999997E-002
         # Potential name: GTH-PBE for element symbol: CA
         # Potential read from the potential filename: POTENTIAL
       &END POTENTIAL
     &END KIND
     &KIND "Si"
       BASIS_SET "DZVP-MOLOPT-SR-GTH-q4"
       ELEMENT "Si"
       POTENTIAL "GTH-PBE"
       &POTENTIAL
         2 2
           4.4000000000000000E-001 1 -6.2692883300000002E+000
         2
           4.3563383000000000E-001 2  8.9517415000000007E+000 -2.7062708199999999E+000
                                                               3.4937806000000000E+000
           4.9794218000000001E-001 1  2.4312767300000000E+000
         # Potential name: GTH-PBE for element symbol: SI
         # Potential read from the potential filename: POTENTIAL
       &END POTENTIAL
     &END KIND
     &KIND "O"
       BASIS_SET "DZVP-MOLOPT-SR-GTH-q6"
       ELEMENT "O"
       POTENTIAL "GTH-PBE"
       &POTENTIAL
         2 4
           2.4455430000000000E-001 2 -1.6667214800000000E+001  2.4873113199999999E+000
         2
           2.2095592000000000E-001 1  1.8337458110000000E+001
           2.1133246999999999E-001 0
         # Potential name: GTH-PBE for element symbol: O
         # Potential read from the potential filename: POTENTIAL
       &END POTENTIAL
     &END KIND
     &KIND "H"
       BASIS_SET "DZVP-MOLOPT-SR-GTH-q1"
       ELEMENT "H"
       POTENTIAL "GTH-PBE"
       &POTENTIAL
         1
           2.0000000000000001E-001 2 -4.1789004399999996E+000  7.2446330999999997E-001
         0
         # Potential name: GTH-PBE for element symbol: H
         # Potential read from the potential filename: POTENTIAL
       &END POTENTIAL
     &END KIND
     &TOPOLOGY
       COORD_FILE_NAME coord.xyz
       COORD_FILE_FORMAT XYZ
       NUMBER_OF_ATOMS 138
       MULTIPLE_UNIT_CELL 1 1 1
     &END TOPOLOGY
   &END SUBSYS
   &PRINT
     &FORCES ON
     &END FORCES
     &STRESS_TENSOR ON
     &END STRESS_TENSOR
   &END PRINT
 &END FORCE_EVAL
