 # Version information for this restart file 
 # current date 2025-01-16 08:27:47.440
 # current working dir /home/zkm/CP2K/Generate_dataset/Jennite/Elastic/elastic_cp2k/example/epsilonxz/pos
 # Program compiled at                2024年 10月 05日 星期六 13:00:57 CST
 # Program compiled on                                               ubuntu-GPU2
 # Program compiled for                                                    local
 # Source code revision number                                       git:6712648
 &GLOBAL
   PRINT_LEVEL LOW
   PROJECT_NAME "geoopt"
   RUN_TYPE GEO_OPT
 &END GLOBAL
 &MOTION
   &GEO_OPT
     OPTIMIZER BFGS
     MAX_ITER 1000
     MAX_DR  3.0000000000000001E-003
     MAX_FORCE  4.4999999999999999E-004
     RMS_DR  1.5000000000000000E-003
     RMS_FORCE  2.9999999999999997E-004
     STEP_START_VAL 38
     KEEP_SPACE_GROUP F
     &BFGS
       TRUST_RADIUS  2.0000000000000001E-001
     &END BFGS
   &END GEO_OPT
   &PRINT
     &TRAJECTORY SILENT
       FORMAT XMOL
     &END TRAJECTORY
     &CELL SILENT
     &END CELL
     &RESTART SILENT
       BACKUP_COPIES 0
     &END RESTART
     &RESTART_HISTORY OFF
     &END RESTART_HISTORY
   &END PRINT
 &END MOTION
 &FORCE_EVAL
   METHOD QS
   STRESS_TENSOR ANALYTICAL
   &DFT
     BASIS_SET_FILE_NAME BASIS_MOLOPT
     POTENTIAL_FILE_NAME POTENTIAL
     MULTIPLICITY 1
     CHARGE 0
     &SCF
       MAX_SCF 25
       EPS_SCF  9.9999999999999995E-008
       IGNORE_CONVERGENCE_FAILURE T
       &OT T
         ALGORITHM STRICT
         MINIMIZER DIIS
         LINESEARCH 2PNT
         PRECONDITIONER FULL_KINETIC
       &END OT
       &OUTER_SCF T
         EPS_SCF  9.9999999999999995E-008
         MAX_SCF 20
       &END OUTER_SCF
       &PRINT
         &RESTART SILENT
           BACKUP_COPIES 0
         &END RESTART
       &END PRINT
     &END SCF
     &QS
       EPS_DEFAULT  9.9999999999999998E-013
     &END QS
     &MGRID
       NGRIDS 4
       CUTOFF  5.0000000000000000E+002
       REL_CUTOFF  7.0000000000000000E+001
     &END MGRID
     &XC
       DENSITY_CUTOFF  1.0000000000000000E-010
       GRADIENT_CUTOFF  1.0000000000000000E-010
       TAU_CUTOFF  1.0000000000000000E-010
       &XC_FUNCTIONAL NO_SHORTCUT
         &PBE T
           PARAMETRIZATION PBESOL
         &END PBE
       &END XC_FUNCTIONAL
       &VDW_POTENTIAL
         POTENTIAL_TYPE PAIR_POTENTIAL
         &PAIR_POTENTIAL
           TYPE DFTD3(BJ)
           PARAMETER_FILE_NAME dftd3.dat
           REFERENCE_FUNCTIONAL "PBEsol"
         &END PAIR_POTENTIAL
       &END VDW_POTENTIAL
     &END XC
     &POISSON
       POISSON_SOLVER PERIODIC
       PERIODIC XYZ
     &END POISSON
   &END DFT
   &SUBSYS
     &CELL
       A  1.0581844796300002E+001  0.0000000000000000E+000  0.0000000000000000E+000
       B -4.9423550439000010E+000  1.3738964779500000E+001  0.0000000000000000E+000
       C -8.5495826149999998E-001 -2.7547349881000005E+000  1.0163400995300002E+001
       PERIODIC XYZ
       MULTIPLE_UNIT_CELL 1 1 1
     &END CELL
     &COORD
       Ca -7.3274227212729703E-001  1.3839323410694564E+000  3.6835019600091945E+000
       Ca  2.5254077381969307E+000  4.5779549285964229E+000  3.2800142800217285E+000
       Ca -1.8635592731687614E+000  4.8551764263094359E+000  3.9521245008626122E+000
       Ca  3.4620643844736936E+000  9.4281228481632884E-001  3.5200586242105403E+000
       Si  5.9673237258172422E+000  5.8085925762048953E+000  1.9731432429253593E+000
       Si  6.7185019789635465E+000  6.5402013704616768E-001  3.7941374873508029E+000
       Si  5.5253484263636610E+000  3.4935258913882912E+000  3.9340927570960003E+000
       O  4.9560035722915492E+000  1.3028407559274182E+001  2.5999267966240631E+000
       O  3.6005977180931964E-001  5.5515404480826183E+000  3.5384549102505347E+000
       O  5.4941523885092725E+000 -2.8389041314147190E-001  4.3094782110043628E+000
       O  7.8541856217596839E+000  8.6002974155793166E-001  4.9388795664702423E+000
       O  7.4346144195441362E+000  1.8390819591986213E-001  2.3895877146182101E+000
       O  5.2668108404522220E+000  4.4594640388131932E+000  2.6198556748550081E+000
       O  6.0155863653161523E+000  2.0570766469103434E+000  3.3025216272351754E+000
       O  5.9891896668865687E+000  5.6741483069355256E+000  3.6614952240701254E-001
       O  4.0113523566555118E+000  3.1912545444445763E+000  4.4458394931159324E+000
       O  6.6232428064902198E+000  4.0958735526356556E+000  4.9616051352735324E+000
       O  1.4890202045209833E+000  2.3192400308175833E+000  3.3082851781788629E+000
       O -1.3724716073892149E+000  3.1913533473896423E+000  2.3937340405700591E+000
       O  3.9572048239565536E+000  8.3957184099952331E-001  1.2063124662922229E+000
       O  4.5461828625927216E+000 -1.0119975512960471E+000  9.3219725476887252E+000
       O  8.3225523534394732E+000 -1.7252562402016016E+000  9.4479916838939424E+000
       O  6.1795310792734197E+000  9.6469672097940928E-001  9.3968456195715770E+000
       Ca  7.6890954511700986E+000  2.5972759201437099E+000  6.5895710953566216E+000
       Ca  4.4216666365247352E+000 -6.0682574277341872E-001  6.9734773383499657E+000
       Ca  8.7703299692856227E+000 -8.2003946750323353E-001  6.4260831831219560E+000
       Ca  3.4976362390133260E+000  2.9940550813324873E+000  6.6158036018287421E+000
       Si  1.0608234120221958E+000 -1.7967581359905849E+000  8.3218642818114077E+000
       Si  2.8416329400451656E-001  3.4226122441172913E+000  6.3999324942441662E+000
       Si  1.4191988472029478E+000  5.2216519736612743E-001  6.3522698170594056E+000
       O -2.8579354940094346E+000  4.6545463657857331E+000  7.6890375311699826E+000
       O  6.5531547006443196E+000 -1.5230014199803834E+000  6.6297776744948127E+000
       O  1.4912675725881068E+000  4.3262120550462022E+000  5.7902912840108067E+000
       O -9.3002100076015082E-001  3.1501673372210224E+000  5.3697776690050283E+000
       O -2.7315021697663572E-001  3.9918747897903093E+000  7.8363600040635149E+000
       O  1.5781774527390517E+000 -3.2605363503711066E-001  7.7606467039898384E+000
       O  1.0248841291284849E+000  2.0337985575807189E+000  6.9172806271438843E+000
       O  1.0368892182698091E+000 -1.7605450113072483E+000  9.9311815206479555E+000
       O  2.9306400279939568E+000  7.0805788683472537E-001  5.7885565179155680E+000
       O  2.9297113724651908E-001 -7.8354716998609061E-002  5.3630115294533542E+000
       O  5.5011072204849993E+000  1.6307381719193070E+000  6.9180145373581015E+000
       O -1.7208337657160713E+000  1.0157325476714216E+000  7.9030791338430308E+000
       O  3.5700589611628639E+000  3.7965923145741294E+000  8.8218852465571569E+000
       O  2.5569584492468946E+000  5.2185351819248353E+000  1.0532829904106240E+000
       O -1.3336945037305936E+000  5.5746761875320585E+000  7.0389455398874423E-001
       O  9.5994831159449745E-001  3.1024131226106300E+000  7.1085514667992800E-001
       Ca  9.2346854638703384E+000  3.3446234887811102E+000  2.3930800901707631E-002
       Ca -3.2001358866261329E+000  8.2540546895246578E+000  3.6822903639802744E+000
       Ca  5.3334423739613591E-002  1.1453018139050011E+001  3.2860711628683563E+000
       Ca -4.3353979455276406E+000  1.1726190969741257E+001  3.9552242772655228E+000
       Ca  9.8757081331467367E-001  7.8141787567908843E+000  3.5162786447831622E+000
       Si  3.4969420787179941E+000  1.2678212994393181E+001  1.9739502812951764E+000
       Si  4.2482628688802082E+000  7.5232013760530592E+000  3.7940589073496431E+000
       Si  3.0529824515381372E+000  1.0364866031696542E+001  3.9355125803378872E+000
       O  7.4262771195732737E+000  6.1595807473417237E+000  2.5992328767793751E+000
       O -2.1134500709632245E+000  1.2419622930824088E+001  3.5410410407648691E+000
       O  3.0220919903609023E+000  6.5852906229299535E+000  4.3098397482666648E+000
       O  5.3849504372658954E+000  7.7305493372385286E+000  4.9374831449507282E+000
       O  4.9622552679589020E+000  7.0537230722653508E+000  2.3890592878560608E+000
       O  2.7975676848984410E+000  1.1327442093913326E+001  2.6193513857472506E+000
       O  3.5429632431012954E+000  8.9264525928284897E+000  3.3062325954385163E+000
       O  3.5199044670547828E+000  1.2543288103951920E+001  3.6687559312957307E-001
       O  1.5399675555828913E+000  1.0062299240851981E+001  4.4485286169494191E+000
       O  4.1460821614139922E+000  1.0965987187561067E+001  4.9690205517088328E+000
       O -9.8144392499425159E-001  9.1887518085105064E+000  3.3084846301571478E+000
       O -3.8439587394920278E+000  1.0061302159452808E+001  2.3953421913856090E+000
       O  1.4845309619925586E+000  7.7101459613248498E+000  1.2017405289350465E+000
       O  2.0255100090420264E+000  5.8716733899454612E+000  9.2597628254153008E+000
       O  5.8481765494629538E+000  5.1444541902059715E+000  9.4493040932362042E+000
       O  3.7048201040745212E+000  7.8301210005382664E+000  9.3963098101622382E+000
       Ca  5.2214521776497538E+000  9.4646589873659721E+000  6.5896722661310427E+000
       Ca  1.9989732990593032E+000  6.2742708813750383E+000  6.9062590254961593E+000
       Ca  6.3098033067970620E+000  6.0489670507893427E+000  6.4182113919719601E+000
       Ca  1.0209126590447570E+000  9.8758598299788876E+000  6.6171213942264107E+000
       Si -1.4197517769331209E+000  5.0755734355532374E+000  8.3231839320743699E+000
       Si -2.1789812567380711E+000  1.0293172384121782E+001  6.3975214166165983E+000
       Si -1.0477653109482996E+000  7.3897547679715991E+000  6.3525616242909591E+000
       O -5.3196351089751088E+000  1.1520056904104054E+001  7.6878196669489043E+000
       O  4.1131605536151419E+000  5.3051003083700197E+000  6.5838494807403745E+000
       O -9.7335911455042134E-001  1.1197766471541186E+001  5.7870695627836550E+000
       O -3.4000098446919469E+000  1.0021619104019198E+001  5.3756266519622002E+000
       O -2.7020692878082846E+000  1.0887413823515303E+001  7.8378785562704909E+000
       O -8.9530139878246606E-001  6.5408888455058438E+000  7.7591237562854110E+000
       O -1.4451284468047496E+000  8.9024577687858670E+000  6.9168223617893725E+000
       O -1.4402253113162886E+000  5.1172379764039579E+000  9.9338303252922859E+000
       O  4.6155592228144160E-001  7.5822749083377214E+000  5.7854361915585946E+000
       O -2.1751019491213213E+000  6.7914415269164063E+000  5.3617059121262836E+000
       O  3.0307006298865962E+000  8.5061156665425042E+000  6.9141646551921978E+000
       O -4.1920367854411946E+000  7.8856505628658908E+000  7.9031991037790279E+000
       O  1.1032210728344831E+000  1.0661095922123444E+001  8.8236462769798560E+000
       O  8.6438015100875024E-002  1.2087790942495115E+001  1.0551809933259673E+000
       O -3.8054084099687278E+000  1.2442766201314233E+001  7.0362623813399028E-001
       O -1.5128140608214471E+000  9.9749345323202547E+000  7.1155814954945373E-001
       Ca  6.7619758726926769E+000  1.0211729782353453E+001  2.5826094453393917E-002
       H  3.1106487312581961E+000  8.7107301206802246E-001  5.9657103079916340E-001
       H  4.6048220014649415E+000  1.3430660554094869E+000  6.2746202278003926E-001
       H  5.2210391406114613E+000 -2.6762071677355825E-001  9.5268370591131593E+000
       H  5.0732832598757556E+000 -1.8790227652543152E+000  9.2834412418153320E+000
       H  8.1669839171233214E+000 -2.5858063300612701E+000  9.9909440814922714E+000
       H  9.1227634977113627E+000 -1.9644456421315404E+000  8.8650145436683712E+000
       H  5.7338582167530143E+000  1.7902270945581189E+000  9.9123547484121044E+000
       H  6.0437693501025276E+000  1.1827222627568263E+000  8.4191145851576010E+000
       H  3.9556005613485632E+000  3.2755743676763016E+000  9.6352900485174242E+000
       H  4.3193167571470541E+000  4.4543257078527940E+000  8.7143590429731645E+000
       H  1.9457420045579299E+000  4.5340400462627493E+000  6.5285030261493615E-001
       H  2.1038084182045895E+000  6.1117824826965190E+000  9.7216848212391449E-001
       H -2.0498802274344357E+000  5.8344566008223309E+000  1.3575698858057776E+000
       H -1.0502203483277692E+000  6.4591698085437814E+000  2.9642576886536237E-001
       H  1.0406056610574490E+000  2.8437447031673617E+000  1.6750495131913687E+000
       H  1.3777464675990925E+000  2.2457495807811370E+000  2.5411666304172442E-001
       H  6.3345122181198243E-001  7.7425447034901795E+000  5.9483013510916583E-001
       H  2.1211172559069174E+000  8.2202180248341854E+000  6.2122814503887225E-001
       H  2.7018403665173052E+000  6.6061046863736195E+000  9.4882680145386047E+000
       H  2.5545047054118255E+000  5.0057017040336280E+000  9.2409848890628972E+000
       H  5.6943841682151399E+000  4.2828342379340283E+000  9.9912048946244525E+000
       H  6.6446445375277978E+000  4.9060780386242104E+000  8.8594268156441274E+000
       H  3.2618770916071629E+000  8.6554686840078681E+000  9.9127531708135663E+000
       H  3.5770432966236201E+000  8.0555899551811141E+000  8.4216656301750312E+000
       H  1.4970259709042144E+000  1.0140690932401464E+001  9.6353675134949626E+000
       H  1.8501387397108957E+000  1.1319575049764321E+001  8.7054609885811711E+000
       H -5.2572735465287601E-001  1.1403654326378316E+001  6.5537540573162201E-001
       H -3.6752081027365330E-001  1.2981252434781362E+001  9.7655108864246654E-001
       H -4.5202183433884420E+000  1.2704549300936192E+001  1.3577409209716527E+000
       H -3.5177904928528059E+000  1.3326273692122868E+001  2.9608279926418002E-001
       H -1.4306853806804087E+000  9.7184286796909891E+000  1.6757543101715833E+000
       H -1.0951489051887968E+000  9.1167885392150456E+000  2.5481579471638161E-001
       H  5.7953946772072962E-001  5.3437207588947535E+000  4.4813756255808066E+000
       H  1.3761007137413188E+000  2.6952196601251450E+000  4.2100201321646686E+000
       H -5.2558582809390042E-001  3.6934472231417339E+000  2.3830399962891127E+000
       H  6.3701418417542435E+000 -1.2776990239254877E+000  5.6866291039066308E+000
       H  5.6958870737487661E+000  1.2184902126840624E+000  6.0444048669096055E+000
       H -8.0002003699782620E-001  1.3575866687123266E+000  7.9185876370890345E+000
       H -1.8905184462001738E+000  1.2218161075530633E+001  4.4845072726146515E+000
       H -1.0874743804564639E+000  9.5635417201991189E+000  4.2114520178631256E+000
       H -2.9989611729998051E+000  1.0566691878139999E+001  2.3828701442247282E+000
       H  3.9346451924090702E+000  5.5433642525643787E+000  5.6397033826553296E+000
       H  3.2169062780288753E+000  8.1388037539625930E+000  6.0192599833591736E+000
       H -3.2682595620709685E+000  8.2196523569702116E+000  7.9184907927350263E+000
     &END COORD
     &KIND "Ca"
       BASIS_SET "DZVP-MOLOPT-SR-GTH-q10"
       ELEMENT "Ca"
       POTENTIAL "GTH-PBE"
       &POTENTIAL
         4 6
           3.9000000000000001E-001 2 -4.1670722199999997E+000 -1.5837978100000001E+000
         3
           2.8935571999999998E-001 2  2.0531876350000001E+001 -7.1297857799999997E+000
                                                               9.2045138699999995E+000
           3.2788205999999998E-001 2  5.8056051300000000E+000 -4.2875335999999997E-001
                                                               5.0730781999999996E-001
           6.7961713000000001E-001 1  5.8068259999999997E-002
         # Potential name: GTH-PBE for element symbol: CA
         # Potential read from the potential filename: POTENTIAL
       &END POTENTIAL
     &END KIND
     &KIND "Si"
       BASIS_SET "DZVP-MOLOPT-SR-GTH-q4"
       ELEMENT "Si"
       POTENTIAL "GTH-PBE"
       &POTENTIAL
         2 2
           4.4000000000000000E-001 1 -6.2692883300000002E+000
         2
           4.3563383000000000E-001 2  8.9517415000000007E+000 -2.7062708199999999E+000
                                                               3.4937806000000000E+000
           4.9794218000000001E-001 1  2.4312767300000000E+000
         # Potential name: GTH-PBE for element symbol: SI
         # Potential read from the potential filename: POTENTIAL
       &END POTENTIAL
     &END KIND
     &KIND "O"
       BASIS_SET "DZVP-MOLOPT-SR-GTH-q6"
       ELEMENT "O"
       POTENTIAL "GTH-PBE"
       &POTENTIAL
         2 4
           2.4455430000000000E-001 2 -1.6667214800000000E+001  2.4873113199999999E+000
         2
           2.2095592000000000E-001 1  1.8337458110000000E+001
           2.1133246999999999E-001 0
         # Potential name: GTH-PBE for element symbol: O
         # Potential read from the potential filename: POTENTIAL
       &END POTENTIAL
     &END KIND
     &KIND "H"
       BASIS_SET "DZVP-MOLOPT-SR-GTH-q1"
       ELEMENT "H"
       POTENTIAL "GTH-PBE"
       &POTENTIAL
         1
           2.0000000000000001E-001 2 -4.1789004399999996E+000  7.2446330999999997E-001
         0
         # Potential name: GTH-PBE for element symbol: H
         # Potential read from the potential filename: POTENTIAL
       &END POTENTIAL
     &END KIND
     &TOPOLOGY
       COORD_FILE_NAME coord.xyz
       COORD_FILE_FORMAT XYZ
       NUMBER_OF_ATOMS 138
       MULTIPLE_UNIT_CELL 1 1 1
     &END TOPOLOGY
   &END SUBSYS
   &PRINT
     &FORCES ON
     &END FORCES
     &STRESS_TENSOR ON
     &END STRESS_TENSOR
   &END PRINT
 &END FORCE_EVAL
