 # Version information for this restart file 
 # current date 2025-01-16 09:38:36.000
 # current working dir /home/zkm/CP2K/Generate_dataset/Jennite/Elastic/elastic_cp2k/example/epsilonxy/neg
 # Program compiled at                2024年 10月 05日 星期六 13:00:57 CST
 # Program compiled on                                               ubuntu-GPU2
 # Program compiled for                                                    local
 # Source code revision number                                       git:6712648
 &GLOBAL
   PRINT_LEVEL LOW
   PROJECT_NAME "geoopt"
   RUN_TYPE GEO_OPT
 &END GLOBAL
 &MOTION
   &GEO_OPT
     OPTIMIZER BFGS
     MAX_ITER 1000
     MAX_DR  3.0000000000000001E-003
     MAX_FORCE  4.4999999999999999E-004
     RMS_DR  1.5000000000000000E-003
     RMS_FORCE  2.9999999999999997E-004
     STEP_START_VAL 44
     KEEP_SPACE_GROUP F
     &BFGS
       TRUST_RADIUS  2.0000000000000001E-001
     &END BFGS
   &END GEO_OPT
   &PRINT
     &TRAJECTORY SILENT
       FORMAT XMOL
     &END TRAJECTORY
     &CELL SILENT
     &END CELL
     &RESTART SILENT
       BACKUP_COPIES 0
     &END RESTART
     &RESTART_HISTORY OFF
     &END RESTART_HISTORY
   &END PRINT
 &END MOTION
 &FORCE_EVAL
   METHOD QS
   STRESS_TENSOR ANALYTICAL
   &DFT
     BASIS_SET_FILE_NAME BASIS_MOLOPT
     POTENTIAL_FILE_NAME POTENTIAL
     MULTIPLICITY 1
     CHARGE 0
     &SCF
       MAX_SCF 25
       EPS_SCF  9.9999999999999995E-008
       IGNORE_CONVERGENCE_FAILURE T
       &OT T
         ALGORITHM STRICT
         MINIMIZER DIIS
         LINESEARCH 2PNT
         PRECONDITIONER FULL_KINETIC
       &END OT
       &OUTER_SCF T
         EPS_SCF  9.9999999999999995E-008
         MAX_SCF 20
       &END OUTER_SCF
       &PRINT
         &RESTART SILENT
           BACKUP_COPIES 0
         &END RESTART
       &END PRINT
     &END SCF
     &QS
       EPS_DEFAULT  9.9999999999999998E-013
     &END QS
     &MGRID
       NGRIDS 4
       CUTOFF  5.0000000000000000E+002
       REL_CUTOFF  7.0000000000000000E+001
     &END MGRID
     &XC
       DENSITY_CUTOFF  1.0000000000000000E-010
       GRADIENT_CUTOFF  1.0000000000000000E-010
       TAU_CUTOFF  1.0000000000000000E-010
       &XC_FUNCTIONAL NO_SHORTCUT
         &PBE T
           PARAMETRIZATION PBESOL
         &END PBE
       &END XC_FUNCTIONAL
       &VDW_POTENTIAL
         POTENTIAL_TYPE PAIR_POTENTIAL
         &PAIR_POTENTIAL
           TYPE DFTD3(BJ)
           PARAMETER_FILE_NAME dftd3.dat
           REFERENCE_FUNCTIONAL "PBEsol"
         &END PAIR_POTENTIAL
       &END VDW_POTENTIAL
     &END XC
     &POISSON
       POISSON_SOLVER PERIODIC
       PERIODIC XYZ
     &END POISSON
   &END DFT
   &SUBSYS
     &CELL
       A  1.0581844796300002E+001  0.0000000000000000E+000  0.0000000000000000E+000
       B -5.0797446917000011E+000  1.3738964779500000E+001  0.0000000000000000E+000
       C -9.2904492159999996E-001 -2.7547349881000005E+000  1.0163400995300002E+001
       PERIODIC XYZ
       MULTIPLE_UNIT_CELL 1 1 1
     &END CELL
     &COORD
       Ca -6.9061396955429644E-001  1.3870411076595235E+000  3.6806450623422036E+000
       Ca  2.5774337908948066E+000  4.5482163630915995E+000  3.2806580483885783E+000
       Ca -1.8559027506102144E+000  4.8524692604153232E+000  3.9532405868304950E+000
       Ca  3.5065664520926809E+000  8.9970797298480010E-001  3.5160906663262361E+000
       Si  5.9665112844063923E+000  5.8173416762579517E+000  1.9740898247352445E+000
       Si  6.7795552360221647E+000  6.6680931944884247E-001  3.7828776437554987E+000
       Si  5.5715429936435674E+000  3.4782970077988109E+000  3.9299558365018914E+000
       O  4.8879534071026418E+000  1.3030199539557614E+001  2.6026152040267361E+000
       O  3.7721509910253315E-001  5.4976699455018307E+000  3.5311860043600674E+000
       O  5.5534618881456783E+000 -2.7027417498863776E-001  4.3037464720814569E+000
       O  7.9159906058814062E+000  8.6104292594333098E-001  4.9317441130219946E+000
       O  7.4923532064103391E+000  1.7636451312305249E-001  2.3831791618335618E+000
       O  5.2439072318790378E+000  4.5009310993853759E+000  2.6728150910669179E+000
       O  6.1108435359583435E+000  2.0779961848446682E+000  3.2503724718717431E+000
       O  6.0056004460370245E+000  5.6599875360893614E+000  3.6927043863690728E-001
       O  4.0748374636316402E+000  3.1228338270434159E+000  4.4476882152214348E+000
       O  6.6604577306715251E+000  4.0857457853912589E+000  4.9623850272630889E+000
       O  1.5362240411393777E+000  2.2640477506934409E+000  3.3116792964645230E+000
       O -1.3445816306679863E+000  3.1928337546138650E+000  2.3922164838242632E+000
       O  4.0147493888225840E+000  8.3635581065223696E-001  1.2079186293746640E+000
       O  4.5387127916371268E+000 -1.0162242780542401E+000  9.3212526759895944E+000
       O  8.3888519292845007E+000 -1.7304678535410878E+000  9.4432295306263647E+000
       O  6.1588285900892892E+000  9.6733702709411240E-001  9.4006412543647500E+000
       Ca  7.7112058703020505E+000  2.5823154641421477E+000  6.5941692459122825E+000
       Ca  4.4794954376019351E+000 -6.0940926231108938E-001  6.9669825225229793E+000
       Ca  8.8432725828184378E+000 -8.1865577767613240E-001  6.4154910566789844E+000
       Ca  3.5099748071199173E+000  2.9921526977335242E+000  6.6098430411244706E+000
       Si  1.1285473713722221E+000 -1.7961015037043990E+000  8.2930705993619522E+000
       Si  3.0097792293519948E-001  3.4140797004378416E+000  6.3998553635593503E+000
       Si  1.4620162902994742E+000  5.2126157529376871E-001  6.3506151578619940E+000
       O -2.8474169158342248E+000  4.6484420790476051E+000  7.6886302653979053E+000
       O  6.6403219467274299E+000 -1.5221618256830309E+000  6.6315707158159594E+000
       O  1.4951160458446602E+000  4.3269754960139144E+000  5.7820429421598938E+000
       O -9.1840105383772697E-001  3.1459358327967037E+000  5.3765444637333442E+000
       O -2.4966929598873877E-001  3.9910164325783164E+000  7.8356952956087236E+000
       O  1.6445718909511098E+000 -3.1818226898826824E-001  7.7608045443388241E+000
       O  1.0737772714857281E+000  2.0377899305397551E+000  6.9132248468155275E+000
       O  1.0537331002669730E+000 -1.7860229881532728E+000  9.8984029078833036E+000
       O  2.9696200358610736E+000  6.9947083034609503E-001  5.7815797225228902E+000
       O  3.2914480038534122E-001 -7.5696340238661591E-002  5.3655906029380276E+000
       O  5.4995345588446831E+000  1.6332112119602382E+000  6.9174138070110178E+000
       O -1.6726372301012551E+000  1.0153230382109695E+000  7.9066377540468036E+000
       O  3.5283102848330890E+000  3.7973314200205772E+000  8.8208278260812847E+000
       O  2.5727264890260146E+000  5.2101801164590951E+000  1.0577659122232390E+000
       O -1.3213726361012914E+000  5.5727837406039900E+000  7.0351588129631371E-001
       O  1.0162985597242489E+000  3.0443731477669465E+000  7.1277439081695770E-001
       Ca  9.3022304446166491E+000  3.3413110846491794E+000  2.3319397449975545E-002
       Ca -3.2138450706801605E+000  8.2569599638144595E+000  3.6796446216631082E+000
       Ca  2.3255921307307633E-002  1.1434986390111545E+001  3.2911527552228290E+000
       Ca -4.3975338449209120E+000  1.1724481205583549E+001  3.9570663452948760E+000
       Ca  9.8388189854817221E-001  7.7711218261866977E+000  3.5139541822050986E+000
       Si  3.4311348026715822E+000  1.2680238947942231E+001  1.9748195333344221E+000
       Si  4.2570377647258093E+000  7.5249881954506481E+000  3.7735079310977797E+000
       Si  3.0292304999907613E+000  1.0357710625277614E+001  3.9238974017827619E+000
       O  7.4253243412340204E+000  6.1604037582079174E+000  2.6027443074971286E+000
       O -2.1664991659954302E+000  1.2364378369050481E+001  3.5341674325085042E+000
       O  3.0424961640791004E+000  6.5771062916904244E+000  4.3014436465088988E+000
       O  5.3896015088077469E+000  7.7261596170505458E+000  4.9234721166113964E+000
       O  4.9549856417851990E+000  7.0730980725130772E+000  2.3482774675434146E+000
       O  2.7370028142209297E+000  1.1323589082848995E+001  2.6156861756141638E+000
       O  3.5534509046075664E+000  8.9318571946061009E+000  3.2975562133796692E+000
       O  3.4645575684966645E+000  1.2549481601703532E+001  3.6643743152217523E-001
       O  1.5243847115661660E+000  1.0048256916981140E+001  4.4481823950432222E+000
       O  4.1184515425487040E+000  1.0964718659907595E+001  4.9544356147781441E+000
       O -9.9781419237177282E-001  9.1312401795771709E+000  3.3099406197002930E+000
       O -3.8823932273079294E+000  1.0063099696575447E+001  2.3954698063648188E+000
       O  1.5416403276356516E+000  7.7065413078394025E+000  1.2088787892437132E+000
       O  2.0113362318309314E+000  5.8769031218613721E+000  9.2561250157720263E+000
       O  5.8438335726768589E+000  5.1364881414424852E+000  9.4513666793844369E+000
       O  3.6488712965710564E+000  7.8670223632874317E+000  9.4430454598389915E+000
       Ca  5.2000572952586275E+000  9.4552979612643178E+000  6.5738989898016778E+000
       Ca  1.9950304310998244E+000  6.2728544874566063E+000  6.9038698613151643E+000
       Ca  6.3172219075849823E+000  6.0432074802598272E+000  6.4184555347356991E+000
       Ca  9.9378341213446764E-001  9.8720208210714304E+000  6.6137073181810226E+000
       Si -1.4086010911135347E+000  5.0638200990814388E+000  8.3214887711547068E+000
       Si -2.2047065304551206E+000  1.0291469830829866E+001  6.3987975285344643E+000
       Si -1.0707489117013091E+000  7.3862049779207357E+000  6.3570765786984520E+000
       O -5.3718440227575455E+000  1.1526556755434839E+001  7.6283384948048978E+000
       O  4.1279333746985243E+000  5.3021726264871836E+000  6.5747339362578145E+000
       O -9.9785941701339242E-001  1.1191626422253439E+001  5.7832405852104865E+000
       O -3.4171886897608195E+000  1.0019340113685379E+001  5.3709018389682983E+000
       O -2.7431092502712007E+000  1.0912689494563550E+001  7.8251508722032286E+000
       O -8.9709859390235502E-001  6.5373024960072685E+000  7.7626526901837130E+000
       O -1.4616040925941400E+000  8.9041608208340364E+000  6.9205380283495543E+000
       O -1.4317081461347352E+000  5.0790883370913873E+000  9.9330086094377226E+000
       O  4.3510071439115189E-001  7.5739799659418470E+000  5.7815960724085498E+000
       O -2.2052154906296151E+000  6.7925526921761357E+000  5.3689282395434716E+000
       O  3.0161620408164680E+000  8.5057550200956591E+000  6.9138144684669349E+000
       O -4.2106572377548082E+000  7.8854939310000356E+000  7.9059268939582275E+000
       O  9.8500783127776181E-001  1.0665799871463216E+001  8.8219256756836604E+000
       O  2.8917862763477454E-002  1.2084452638503310E+001  1.0583448964174103E+000
       O -3.8590329721282122E+000  1.2443667778923931E+001  7.0413810685078504E-001
       O -1.5183551651762957E+000  9.9094852106070146E+000  7.1441289774227801E-001
       Ca  6.7759996340033251E+000  1.0208822788675381E+001  3.1655758179289666E-002
       H  3.1771457228302626E+000  8.6345644736996208E-001  5.8313112851121818E-001
       H  4.6695505068922953E+000  1.3373894683815848E+000  6.3715253465208965E-001
       H  5.2080592734729336E+000 -2.7057290845382403E-001  9.5323841919672692E+000
       H  5.0683359334590845E+000 -1.8810158365834995E+000  9.2869227255776963E+000
       H  8.2157150222076503E+000 -2.5896169235897362E+000  9.9803396523152781E+000
       H  9.1869572101763097E+000 -1.9678738524889052E+000  8.8652865763432480E+000
       H  5.7027798495328570E+000  1.7862917155175024E+000  9.9187947189543380E+000
       H  6.0307977611964763E+000  1.1902936457201136E+000  8.4246228817221951E+000
       H  3.9197584504000811E+000  3.2736355393320768E+000  9.6341970428972559E+000
       H  4.2800625134397876E+000  4.4487849843316400E+000  8.7053162873244592E+000
       H  1.9701118525173131E+000  4.5244385741407447E+000  6.5122048452878223E-001
       H  2.1283706410530634E+000  6.1085038603288782E+000  9.7578652318760206E-001
       H -2.0417013608369432E+000  5.8361572511631667E+000  1.3496834739951262E+000
       H -1.0139661058230982E+000  6.4525074829265101E+000  2.9945018779477367E-001
       H  1.0939462007393579E+000  2.7878672960804822E+000  1.6768366310073317E+000
       H  1.4424481235202744E+000  2.1994069823684699E+000  2.4531613124238497E-001
       H  6.9711079342256999E-001  7.7356251126987639E+000  5.8633659312395514E-001
       H  2.1856189540067223E+000  8.2206201980761229E+000  6.4382024876783284E-001
       H  2.6743781184008713E+000  6.6160605945111195E+000  9.5025299092106099E+000
       H  2.5366861532876728E+000  5.0088269349080896E+000  9.2449246400041751E+000
       H  5.6752254548167231E+000  4.2782988497469123E+000  9.9875687912400757E+000
       H  6.6441508482938971E+000  4.8976573770069516E+000  8.8682634342835662E+000
       H  3.1758043078232103E+000  8.6875456487450720E+000  9.9462639373736064E+000
       H  3.5394972601123458E+000  8.0822935102104481E+000  8.4668307296850394E+000
       H  1.3884265987717899E+000  1.0148692779499680E+001  9.6355631534452666E+000
       H  1.7244125101575929E+000  1.1327782578136294E+001  8.6958056649516422E+000
       H -5.6209312175713866E-001  1.1387307438967273E+001  6.5373444319206087E-001
       H -4.4031239134958183E-001  1.2969497806024814E+001  9.7759810455095908E-001
       H -4.5780347064767186E+000  1.2703742857991958E+001  1.3530005581424009E+000
       H -3.5772543675909367E+000  1.3322723874581319E+001  2.8077341287994062E-001
       H -1.4427473044557702E+000  9.6625872169055533E+000  1.6813958649612013E+000
       H -1.0728590889505407E+000  9.0658548575304163E+000  2.6267463813146957E-001
       H  6.0446349656996434E-001  5.2689204049547609E+000  4.4690009406148672E+000
       H  1.4425781292617201E+000  2.6391768933717730E+000  4.2157075551028189E+000
       H -5.0350312680463916E-001  3.7077505407609279E+000  2.4002215975636600E+000
       H  6.4490915993657358E+000 -1.2668770033079755E+000  5.6933311335358914E+000
       H  5.6621369597628997E+000  1.2601384809175533E+000  6.0199133438975672E+000
       H -7.5479523780182578E-001  1.3622583417846219E+000  7.9403609241060193E+000
       H -1.9391629403358630E+000  1.2148475771188791E+001  4.4740501976567026E+000
       H -1.0714232366798111E+000  9.4955988018771595E+000  4.2199707243834190E+000
       H -3.0428339296889599E+000  1.0580490248557277E+001  2.4142077085607783E+000
       H  3.9454673450072630E+000  5.5674631665586789E+000  5.6374769392348796E+000
       H  3.1877836214479012E+000  8.1508328419279312E+000  6.0109159052076500E+000
       H -3.2885745353553282E+000  8.2218367563849437E+000  7.9357526171191708E+000
     &END COORD
     &KIND "Ca"
       BASIS_SET "DZVP-MOLOPT-SR-GTH-q10"
       ELEMENT "Ca"
       POTENTIAL "GTH-PBE"
       &POTENTIAL
         4 6
           3.9000000000000001E-001 2 -4.1670722199999997E+000 -1.5837978100000001E+000
         3
           2.8935571999999998E-001 2  2.0531876350000001E+001 -7.1297857799999997E+000
                                                               9.2045138699999995E+000
           3.2788205999999998E-001 2  5.8056051300000000E+000 -4.2875335999999997E-001
                                                               5.0730781999999996E-001
           6.7961713000000001E-001 1  5.8068259999999997E-002
         # Potential name: GTH-PBE for element symbol: CA
         # Potential read from the potential filename: POTENTIAL
       &END POTENTIAL
     &END KIND
     &KIND "Si"
       BASIS_SET "DZVP-MOLOPT-SR-GTH-q4"
       ELEMENT "Si"
       POTENTIAL "GTH-PBE"
       &POTENTIAL
         2 2
           4.4000000000000000E-001 1 -6.2692883300000002E+000
         2
           4.3563383000000000E-001 2  8.9517415000000007E+000 -2.7062708199999999E+000
                                                               3.4937806000000000E+000
           4.9794218000000001E-001 1  2.4312767300000000E+000
         # Potential name: GTH-PBE for element symbol: SI
         # Potential read from the potential filename: POTENTIAL
       &END POTENTIAL
     &END KIND
     &KIND "O"
       BASIS_SET "DZVP-MOLOPT-SR-GTH-q6"
       ELEMENT "O"
       POTENTIAL "GTH-PBE"
       &POTENTIAL
         2 4
           2.4455430000000000E-001 2 -1.6667214800000000E+001  2.4873113199999999E+000
         2
           2.2095592000000000E-001 1  1.8337458110000000E+001
           2.1133246999999999E-001 0
         # Potential name: GTH-PBE for element symbol: O
         # Potential read from the potential filename: POTENTIAL
       &END POTENTIAL
     &END KIND
     &KIND "H"
       BASIS_SET "DZVP-MOLOPT-SR-GTH-q1"
       ELEMENT "H"
       POTENTIAL "GTH-PBE"
       &POTENTIAL
         1
           2.0000000000000001E-001 2 -4.1789004399999996E+000  7.2446330999999997E-001
         0
         # Potential name: GTH-PBE for element symbol: H
         # Potential read from the potential filename: POTENTIAL
       &END POTENTIAL
     &END KIND
     &TOPOLOGY
       COORD_FILE_NAME coord.xyz
       COORD_FILE_FORMAT XYZ
       NUMBER_OF_ATOMS 138
       MULTIPLE_UNIT_CELL 1 1 1
     &END TOPOLOGY
   &END SUBSYS
   &PRINT
     &FORCES ON
     &END FORCES
     &STRESS_TENSOR ON
     &END STRESS_TENSOR
   &END PRINT
 &END FORCE_EVAL
