 # Version information for this restart file 
 # current date 2025-01-16 07:47:59.962
 # current working dir /home/zkm/CP2K/Generate_dataset/Jennite/Elastic/elastic_cp2k/example/epsilonyz/pos
 # Program compiled at                2024年 10月 05日 星期六 13:00:57 CST
 # Program compiled on                                               ubuntu-GPU2
 # Program compiled for                                                    local
 # Source code revision number                                       git:6712648
 &GLOBAL
   PRINT_LEVEL LOW
   PROJECT_NAME "geoopt"
   RUN_TYPE GEO_OPT
 &END GLOBAL
 &MOTION
   &GEO_OPT
     OPTIMIZER BFGS
     MAX_ITER 1000
     MAX_DR  3.0000000000000001E-003
     MAX_FORCE  4.4999999999999999E-004
     RMS_DR  1.5000000000000000E-003
     RMS_FORCE  2.9999999999999997E-004
     STEP_START_VAL 31
     KEEP_SPACE_GROUP F
     &BFGS
       TRUST_RADIUS  2.0000000000000001E-001
     &END BFGS
   &END GEO_OPT
   &PRINT
     &TRAJECTORY SILENT
       FORMAT XMOL
     &END TRAJECTORY
     &CELL SILENT
     &END CELL
     &RESTART SILENT
       BACKUP_COPIES 0
     &END RESTART
     &RESTART_HISTORY OFF
     &END RESTART_HISTORY
   &END PRINT
 &END MOTION
 &FORCE_EVAL
   METHOD QS
   STRESS_TENSOR ANALYTICAL
   &DFT
     BASIS_SET_FILE_NAME BASIS_MOLOPT
     POTENTIAL_FILE_NAME POTENTIAL
     MULTIPLICITY 1
     CHARGE 0
     &SCF
       MAX_SCF 25
       EPS_SCF  9.9999999999999995E-008
       IGNORE_CONVERGENCE_FAILURE T
       &OT T
         ALGORITHM STRICT
         MINIMIZER DIIS
         LINESEARCH 2PNT
         PRECONDITIONER FULL_KINETIC
       &END OT
       &OUTER_SCF T
         EPS_SCF  9.9999999999999995E-008
         MAX_SCF 20
       &END OUTER_SCF
       &PRINT
         &RESTART SILENT
           BACKUP_COPIES 0
         &END RESTART
       &END PRINT
     &END SCF
     &QS
       EPS_DEFAULT  9.9999999999999998E-013
     &END QS
     &MGRID
       NGRIDS 4
       CUTOFF  5.0000000000000000E+002
       REL_CUTOFF  7.0000000000000000E+001
     &END MGRID
     &XC
       DENSITY_CUTOFF  1.0000000000000000E-010
       GRADIENT_CUTOFF  1.0000000000000000E-010
       TAU_CUTOFF  1.0000000000000000E-010
       &XC_FUNCTIONAL NO_SHORTCUT
         &PBE T
           PARAMETRIZATION PBESOL
         &END PBE
       &END XC_FUNCTIONAL
       &VDW_POTENTIAL
         POTENTIAL_TYPE PAIR_POTENTIAL
         &PAIR_POTENTIAL
           TYPE DFTD3(BJ)
           PARAMETER_FILE_NAME dftd3.dat
           REFERENCE_FUNCTIONAL "PBEsol"
         &END PAIR_POTENTIAL
       &END VDW_POTENTIAL
     &END XC
     &POISSON
       POISSON_SOLVER PERIODIC
       PERIODIC XYZ
     &END POISSON
   &END DFT
   &SUBSYS
     &CELL
       A  1.0581844796300002E+001  0.0000000000000000E+000  0.0000000000000000E+000
       B -4.9423550439000010E+000  1.3738964779500000E+001  0.0000000000000000E+000
       C -9.5659227150000015E-001 -2.6531009780999999E+000  1.0163400995300002E+001
       PERIODIC XYZ
       MULTIPLE_UNIT_CELL 1 1 1
     &END CELL
     &COORD
       Ca -7.1985162118215928E-001  1.3715452318208687E+000  3.6935024502383973E+000
       Ca  2.5498160957912002E+000  4.5724978861264232E+000  3.2867156391706343E+000
       Ca -1.8684912926434065E+000  4.8452102564745934E+000  3.9457649131177988E+000
       Ca  3.4669029058531300E+000  9.2488661715689158E-001  3.5418353864791685E+000
       Si  5.9522200190552059E+000  5.8195099467517464E+000  1.9734014127128026E+000
       Si  6.7407869509664851E+000  6.6534029289396446E-001  3.7732366399902380E+000
       Si  5.5306985881208952E+000  3.5076512847084200E+000  3.9606441036969291E+000
       O  4.9408762485571209E+000  1.3033306460949454E+001  2.6008497327475375E+000
       O  3.5743058302486175E-001  5.5266491847587362E+000  3.5357254084409759E+000
       O  5.5315191052189450E+000 -2.9106493654664778E-001  4.2989169881011788E+000
       O  7.8802288468872526E+000  8.4697834506909397E-001  4.9225605236865491E+000
       O  7.4241753587352664E+000  2.1988449788993725E-001  2.3354718067850593E+000
       O  5.2194530657356308E+000  4.5178813234647626E+000  2.6868906252650300E+000
       O  6.0540935660505326E+000  2.0900653628906789E+000  3.3101143800984216E+000
       O  6.0078864370707095E+000  5.6155882750206745E+000  3.7346817527515497E-001
       O  4.0256658271750325E+000  3.1641328886800824E+000  4.4626589030008317E+000
       O  6.6183132279822958E+000  4.1124939791245669E+000  5.0004648426668901E+000
       O  1.4902048276571416E+000  2.2926088091129979E+000  3.3131072083243325E+000
       O -1.3674029213335306E+000  3.1570419756982870E+000  2.3960145763961380E+000
       O  4.0027924288882790E+000  8.3322511085781292E-001  1.2589658844271974E+000
       O  4.4807103236007286E+000 -9.8870489819084517E-001  9.3243095480790306E+000
       O  8.2996354901651550E+000 -1.6541448909642456E+000  9.4513820999483116E+000
       O  6.1099046874944909E+000  9.9792601034651318E-001  9.4014729994266215E+000
       Ca  7.6777824251081013E+000  2.5957198806200430E+000  6.5954507503440905E+000
       Ca  4.4197747325843633E+000 -6.1485079426818079E-001  6.9679246970817950E+000
       Ca  8.7770334417764033E+000 -8.1373027571371803E-001  6.4346798919773596E+000
       Ca  3.4740967964793801E+000  2.9995043757355417E+000  6.6200753536138270E+000
       Si  1.0527746648064602E+000 -1.7876492864012423E+000  8.3344900552585273E+000
       Si  2.7452686933807013E-001  3.4155668176446086E+000  6.4053450594612622E+000
       Si  1.4164055023091915E+000  5.1287910863618058E-001  6.3518830213719832E+000
       O -2.8557274191602504E+000  4.6617493862453641E+000  7.6978810966282643E+000
       O  6.5697393522854535E+000 -1.5257630315135229E+000  6.6298563298451887E+000
       O  1.4735402499386483E+000  4.3254517359331581E+000  5.7885179316901150E+000
       O -9.4512507580146443E-001  3.1414120953950988E+000  5.3821714188031962E+000
       O -2.6278451985964507E-001  4.0013477038478555E+000  7.8443935451605267E+000
       O  1.5936212939498340E+000 -3.2894597003289633E-001  7.7604010693242964E+000
       O  1.0406627948468405E+000  2.0341429752535785E+000  6.9139154760595805E+000
       O  1.0197122228046731E+000 -1.7189937007768614E+000  9.9443909603815275E+000
       O  2.9262854972143542E+000  6.9315196768740506E-001  5.7855674161631834E+000
       O  2.8184043385398561E-001 -8.8457942385671395E-002  5.3698399067862725E+000
       O  5.4657401607852876E+000  1.6331528422581942E+000  6.9163331213874599E+000
       O -1.7128287167817033E+000  1.0288131634797322E+000  7.9071786321122435E+000
       O  3.5133324560836026E+000  3.8153102138829631E+000  8.8200093956756760E+000
       O  2.5508742060549854E+000  5.2168698193665843E+000  1.0574674908544064E+000
       O -1.3788144255369694E+000  5.5246140123462864E+000  6.9592832269697835E-001
       O  9.8241023819339979E-001  3.0422343926686297E+000  7.0980005456367923E-001
       Ca  9.2710938699802679E+000  3.2940894590363157E+000  2.8227966129662687E-002
       Ca -3.1906079635969631E+000  8.2414595792230614E+000  3.6937076061738376E+000
       Ca  7.8128419626722692E-002  1.1441954750138462E+001  3.2866432688268863E+000
       Ca -4.3396658064903280E+000  1.1714589591386055E+001  3.9462120496790476E+000
       Ca  9.9592918556413068E-001  7.7941514152062137E+000  3.5418776788605628E+000
       Si  3.4811222490331164E+000  1.2688838715215441E+001  1.9734827548493175E+000
       Si  4.2697117656037937E+000  7.5349366908318256E+000  3.7732054742462582E+000
       Si  3.0594557079360460E+000  1.0377165982526890E+001  3.9607239704138708E+000
       O  7.4120046974415237E+000  6.1641855871630602E+000  2.6008342159993099E+000
       O -2.1138265118535866E+000  1.2396168177859112E+001  3.5357182876305484E+000
       O  3.0606140097053012E+000  6.5783512730690026E+000  4.2990220322990744E+000
       O  5.4092149130250577E+000  7.7165793642292968E+000  4.9224336192332139E+000
       O  4.9528456668168914E+000  7.0894019150812575E+000  2.3354113932908391E+000
       O  2.7482908998963786E+000  1.1387265120022915E+001  2.6869631404539667E+000
       O  3.5827876055229417E+000  8.9595309101169835E+000  3.3103616458101612E+000
       O  3.5366927337347418E+000  1.2485020571707391E+001  3.7350736403585316E-001
       O  1.5543616414419534E+000  1.0033722448058564E+001  4.4627338760173849E+000
       O  4.1470340444530898E+000  1.0982001830436637E+001  5.0006131642602138E+000
       O -9.8074096118847065E-001  9.1619661221652589E+000  3.3133209467203515E+000
       O -3.8385477585881289E+000  1.0026606348604890E+001  2.3959799285070007E+000
       O  1.5307682280286281E+000  7.7023900709857429E+000  1.2587633640644693E+000
       O  2.0093848254890867E+000  5.8808075565120017E+000  9.3238403930670728E+000
       O  5.8281343111873296E+000  5.2157986114954076E+000  9.4513857063643965E+000
       O  3.6387465060056989E+000  7.8676115928706976E+000  9.4015807760553205E+000
       Ca  5.2067276174962522E+000  9.4652068335350954E+000  6.5955435117732950E+000
       Ca  1.9490298558446213E+000  6.2546790447733445E+000  6.9677332574056923E+000
       Ca  6.3055871627014470E+000  6.0556701260870547E+000  6.4342235341960716E+000
       Ca  1.0031365443049509E+000  9.8691887948020298E+000  6.6201064068632451E+000
       Si -1.4189170830698812E+000  5.0817223563707756E+000  8.3343716663592886E+000
       Si -2.1964981585351988E+000  1.0285120939894375E+001  6.4054533061566961E+000
       Si -1.0548650202781571E+000  7.3823232519346140E+000  6.3519629341949937E+000
       O -5.3260083733556725E+000  1.1531152759845346E+001  7.6976588647458817E+000
       O  4.0984690384046685E+000  5.3436206178814434E+000  6.6295517927869581E+000
       O -9.9749550101204165E-001  1.1194948289392743E+001  5.7885158900928939E+000
       O -3.4162358845672745E+000  1.0010963447884748E+001  5.3824391954855502E+000
       O -2.7335731366303464E+000  1.0870875564656622E+001  7.8445445607981039E+000
       O -8.7767799735370722E-001  6.5402968033794719E+000  7.7603721660615639E+000
       O -1.4304387479378666E+000  8.9036219132090952E+000  6.9140016552727834E+000
       O -1.4518259364403496E+000  5.1503091299595312E+000  9.9442403391144900E+000
       O  4.5514074372592400E-001  7.5624819702460870E+000  5.7856079341609545E+000
       O -2.1892328082886530E+000  6.7808697211172566E+000  5.3698471505012710E+000
       O  2.9945882607549330E+000  8.5026538595159682E+000  6.9162826722738018E+000
       O -4.1840916780443536E+000  7.8981729790016448E+000  7.9071839333897360E+000
       O  1.0422374703807573E+000  1.0684815576955069E+001  8.8199644706989258E+000
       O  7.9683515349690204E-002  1.2086420710039961E+001  1.0574318411913737E+000
       O -3.8498538553598807E+000  1.2394271559408828E+001  6.9583488097641688E-001
       O -1.4888069381749165E+000  9.9117566318988146E+000  7.0980750438590556E-001
       Ca  6.7997929370592223E+000  1.0163793541780731E+001  2.8199904669993784E-002
       H  3.1624408907313177E+000  8.5348774232214408E-001  6.2850978850285244E-001
       H  4.6603746765950778E+000  1.3147705980539945E+000  6.7574029268129387E-001
       H  5.1542465059853093E+000 -2.4649400525130929E-001  9.5314260875067021E+000
       H  5.0041728864873978E+000 -1.8583518277680726E+000  9.2989957772176215E+000
       H  8.1212085072331650E+000 -2.5090907636554833E+000  9.9839591073386842E+000
       H  9.1034802145969849E+000 -1.9087653387070804E+000  8.8811204721563861E+000
       H  5.6669737030047385E+000  1.8174603392868884E+000  9.9176393893907306E+000
       H  5.9765605875428189E+000  1.2137532523724086E+000  8.4223406628035580E+000
       H  3.9380341822415366E+000  3.3143466188129480E+000  9.6417476486159615E+000
       H  4.2399907016180753E+000  4.4821784250181986E+000  8.6646662035569726E+000
       H  1.9478028328130148E+000  4.5363827224003943E+000  6.4579912441042941E-001
       H  2.0990792669140443E+000  6.1136645602678898E+000  9.9888315356214963E-001
       H -2.0885768161351406E+000  5.8049118923221403E+000  1.3478693239317270E+000
       H -1.0389179254036527E+000  6.4005189654709307E+000  3.1347834525129831E-001
       H  1.0673846383857342E+000  2.7972724758325032E+000  1.6780034177421126E+000
       H  1.4182527870452173E+000  2.1977419184757405E+000  2.5769617907951198E-001
       H  6.9014733091648028E-001  7.7222795409485325E+000  6.2850212225344493E-001
       H  2.1880091003968865E+000  8.1839519018101790E+000  6.7538963514781503E-001
       H  2.6826658997599431E+000  6.6228792802515981E+000  9.5314505543259802E+000
       H  2.5329406694302197E+000  5.0111108161270241E+000  9.2988554614151546E+000
       H  5.6498751685988440E+000  4.3610453193797332E+000  9.9840630730515976E+000
       H  6.6317954603309897E+000  4.9610316651633948E+000  8.8806614599093709E+000
       H  3.1958936252023600E+000  8.6871530490846958E+000  9.9178706516604755E+000
       H  3.5053358855621806E+000  8.0836301036955671E+000  8.4225135925788859E+000
       H  1.4669471359429105E+000  1.0183704399751976E+001  9.6415191730314334E+000
       H  1.7689687013274220E+000  1.1351575748685169E+001  8.6644885775927101E+000
       H -5.2352446021192067E-001  1.1406269861929841E+001  6.4546472830666435E-001
       H -3.7142894555950867E-001  1.2983566884491681E+001  9.9842260537243432E-001
       H -4.5592891411834184E+000  1.2674603438147033E+001  1.3480499201814964E+000
       H -3.5094285038051827E+000  1.3270191609895919E+001  3.1374196018718642E-001
       H -1.4038509260085257E+000  9.6669786635898447E+000  1.6779505582936778E+000
       H -1.0530046441990830E+000  9.0672716325897653E+000  2.5781915902862046E-001
       H  5.7884527531356322E-001  5.3098896278524750E+000  4.4771526364420504E+000
       H  1.3778860431405575E+000  2.6899362236597439E+000  4.2057173566196173E+000
       H -5.2260928825669162E-001  3.6638571831716820E+000  2.3945724314532524E+000
       H  6.3922124212178328E+000 -1.2667708545865997E+000  5.6885530279553489E+000
       H  5.6517560227550980E+000  1.2394471720656903E+000  6.0322911883223567E+000
       H -7.9202017335653696E-001  1.3676035377434776E+000  7.9393761037254773E+000
       H -1.8923868646344886E+000  1.2179113226638231E+001  4.4770731933274703E+000
       H -1.0902734835993837E+000  9.5571873610962950E+000  4.2072146241735346E+000
       H -2.9940129144739318E+000  1.0533884505993598E+001  2.3947450890279467E+000
       H  3.9207418146676623E+000  5.6027254834662692E+000  5.6882446764378161E+000
       H  3.1806260130106945E+000  8.1092584415284819E+000  6.0320624648480559E+000
       H -3.2632292926154856E+000  8.2367108494326171E+000  7.9392600508206490E+000
     &END COORD
     &KIND "Ca"
       BASIS_SET "DZVP-MOLOPT-SR-GTH-q10"
       ELEMENT "Ca"
       POTENTIAL "GTH-PBE"
       &POTENTIAL
         4 6
           3.9000000000000001E-001 2 -4.1670722199999997E+000 -1.5837978100000001E+000
         3
           2.8935571999999998E-001 2  2.0531876350000001E+001 -7.1297857799999997E+000
                                                               9.2045138699999995E+000
           3.2788205999999998E-001 2  5.8056051300000000E+000 -4.2875335999999997E-001
                                                               5.0730781999999996E-001
           6.7961713000000001E-001 1  5.8068259999999997E-002
         # Potential name: GTH-PBE for element symbol: CA
         # Potential read from the potential filename: POTENTIAL
       &END POTENTIAL
     &END KIND
     &KIND "Si"
       BASIS_SET "DZVP-MOLOPT-SR-GTH-q4"
       ELEMENT "Si"
       POTENTIAL "GTH-PBE"
       &POTENTIAL
         2 2
           4.4000000000000000E-001 1 -6.2692883300000002E+000
         2
           4.3563383000000000E-001 2  8.9517415000000007E+000 -2.7062708199999999E+000
                                                               3.4937806000000000E+000
           4.9794218000000001E-001 1  2.4312767300000000E+000
         # Potential name: GTH-PBE for element symbol: SI
         # Potential read from the potential filename: POTENTIAL
       &END POTENTIAL
     &END KIND
     &KIND "O"
       BASIS_SET "DZVP-MOLOPT-SR-GTH-q6"
       ELEMENT "O"
       POTENTIAL "GTH-PBE"
       &POTENTIAL
         2 4
           2.4455430000000000E-001 2 -1.6667214800000000E+001  2.4873113199999999E+000
         2
           2.2095592000000000E-001 1  1.8337458110000000E+001
           2.1133246999999999E-001 0
         # Potential name: GTH-PBE for element symbol: O
         # Potential read from the potential filename: POTENTIAL
       &END POTENTIAL
     &END KIND
     &KIND "H"
       BASIS_SET "DZVP-MOLOPT-SR-GTH-q1"
       ELEMENT "H"
       POTENTIAL "GTH-PBE"
       &POTENTIAL
         1
           2.0000000000000001E-001 2 -4.1789004399999996E+000  7.2446330999999997E-001
         0
         # Potential name: GTH-PBE for element symbol: H
         # Potential read from the potential filename: POTENTIAL
       &END POTENTIAL
     &END KIND
     &TOPOLOGY
       COORD_FILE_NAME coord.xyz
       COORD_FILE_FORMAT XYZ
       NUMBER_OF_ATOMS 138
       MULTIPLE_UNIT_CELL 1 1 1
     &END TOPOLOGY
   &END SUBSYS
   &PRINT
     &FORCES ON
     &END FORCES
     &STRESS_TENSOR ON
     &END STRESS_TENSOR
   &END PRINT
 &END FORCE_EVAL
