 # Version information for this restart file 
 # current date 2025-01-16 08:50:36.970
 # current working dir /home/zkm/CP2K/Generate_dataset/Jennite/Elastic/elastic_cp2k/example/epsilonxz/neg
 # Program compiled at                2024年 10月 05日 星期六 13:00:57 CST
 # Program compiled on                                               ubuntu-GPU2
 # Program compiled for                                                    local
 # Source code revision number                                       git:6712648
 &GLOBAL
   PRINT_LEVEL LOW
   PROJECT_NAME "geoopt"
   RUN_TYPE GEO_OPT
 &END GLOBAL
 &MOTION
   &GEO_OPT
     OPTIMIZER BFGS
     MAX_ITER 1000
     MAX_DR  3.0000000000000001E-003
     MAX_FORCE  4.4999999999999999E-004
     RMS_DR  1.5000000000000000E-003
     RMS_FORCE  2.9999999999999997E-004
     STEP_START_VAL 35
     KEEP_SPACE_GROUP F
     &BFGS
       TRUST_RADIUS  2.0000000000000001E-001
     &END BFGS
   &END GEO_OPT
   &PRINT
     &TRAJECTORY SILENT
       FORMAT XMOL
     &END TRAJECTORY
     &CELL SILENT
     &END CELL
     &RESTART SILENT
       BACKUP_COPIES 0
     &END RESTART
     &RESTART_HISTORY OFF
     &END RESTART_HISTORY
   &END PRINT
 &END MOTION
 &FORCE_EVAL
   METHOD QS
   STRESS_TENSOR ANALYTICAL
   &DFT
     BASIS_SET_FILE_NAME BASIS_MOLOPT
     POTENTIAL_FILE_NAME POTENTIAL
     MULTIPLICITY 1
     CHARGE 0
     &SCF
       MAX_SCF 25
       EPS_SCF  9.9999999999999995E-008
       IGNORE_CONVERGENCE_FAILURE T
       &OT T
         ALGORITHM STRICT
         MINIMIZER DIIS
         LINESEARCH 2PNT
         PRECONDITIONER FULL_KINETIC
       &END OT
       &OUTER_SCF T
         EPS_SCF  9.9999999999999995E-008
         MAX_SCF 20
       &END OUTER_SCF
       &PRINT
         &RESTART SILENT
           BACKUP_COPIES 0
         &END RESTART
       &END PRINT
     &END SCF
     &QS
       EPS_DEFAULT  9.9999999999999998E-013
     &END QS
     &MGRID
       NGRIDS 4
       CUTOFF  5.0000000000000000E+002
       REL_CUTOFF  7.0000000000000000E+001
     &END MGRID
     &XC
       DENSITY_CUTOFF  1.0000000000000000E-010
       GRADIENT_CUTOFF  1.0000000000000000E-010
       TAU_CUTOFF  1.0000000000000000E-010
       &XC_FUNCTIONAL NO_SHORTCUT
         &PBE T
           PARAMETRIZATION PBESOL
         &END PBE
       &END XC_FUNCTIONAL
       &VDW_POTENTIAL
         POTENTIAL_TYPE PAIR_POTENTIAL
         &PAIR_POTENTIAL
           TYPE DFTD3(BJ)
           PARAMETER_FILE_NAME dftd3.dat
           REFERENCE_FUNCTIONAL "PBEsol"
         &END PAIR_POTENTIAL
       &END VDW_POTENTIAL
     &END XC
     &POISSON
       POISSON_SOLVER PERIODIC
       PERIODIC XYZ
     &END POISSON
   &END DFT
   &SUBSYS
     &CELL
       A  1.0581844796300002E+001  0.0000000000000000E+000  0.0000000000000000E+000
       B -4.9423550439000010E+000  1.3738964779500000E+001  0.0000000000000000E+000
       C -1.0582262815000001E+000 -2.7547349881000005E+000  1.0163400995300002E+001
       PERIODIC XYZ
       MULTIPLE_UNIT_CELL 1 1 1
     &END CELL
     &COORD
       Ca -7.1174983516408930E-001  1.3930177929285279E+000  3.6748160347213146E+000
       Ca  2.5731641509977878E+000  4.5831582931903085E+000  3.2696058958795056E+000
       Ca -1.8590390747007930E+000  4.8576325527365771E+000  3.9436006240019719E+000
       Ca  3.4663635960710626E+000  9.1885048655718893E-001  3.5226696892753684E+000
       Si  5.9541696997318372E+000  5.8227815951029971E+000  1.9617127484984929E+000
       Si  6.7301062535483736E+000  6.7564374401937244E-001  3.7470102888117482E+000
       Si  5.5343676750492019E+000  3.5010004465598170E+000  3.9138845969510703E+000
       O  4.9308763056272751E+000  1.3031781068567241E+001  2.6103179638845693E+000
       O  3.8747952257390250E-001  5.5034815708556772E+000  3.5319244930521938E+000
       O  5.5277186169357382E+000 -2.7267019151805200E-001  4.3005037564270863E+000
       O  7.8843597818560189E+000  8.7833532545277848E-001  4.8745250375894100E+000
       O  7.4029917041606117E+000  2.0023629460022019E-001  2.3207294317851037E+000
       O  5.2100707967056730E+000  4.5054465007345055E+000  2.6361686494956169E+000
       O  6.0261797912268698E+000  2.0789408331360812E+000  3.2465086533170657E+000
       O  6.0481406152632324E+000  5.6651595167887914E+000  3.5943887166350724E-001
       O  4.0381568049366692E+000  3.1795305866812478E+000  4.4532622958085000E+000
       O  6.6410394621946462E+000  4.0907059802945671E+000  4.9391951488167543E+000
       O  1.5050975745340038E+000  2.3174019588514678E+000  3.3095471525416342E+000
       O -1.3446978954556033E+000  3.1958036816763902E+000  2.3891990444415359E+000
       O  4.0054922210384216E+000  8.3834225543471430E-001  1.2109380069076598E+000
       O  4.4320063900514528E+000 -1.0170477287374451E+000  9.3259448808809129E+000
       O  8.2713767234600635E+000 -1.7323469967478524E+000  9.4508644588155981E+000
       O  6.0653816209471509E+000  9.6487022656736476E-001  9.3926476974261703E+000
       Ca  7.6615034146617660E+000  2.5866585036984273E+000  6.5637574379025523E+000
       Ca  4.4018021929238778E+000 -6.1264305204442637E-001  6.9772531972394800E+000
       Ca  8.7594428180707204E+000 -8.0712527543698265E-001  6.3858496641459119E+000
       Ca  3.4667623582134572E+000  3.0080647335105959E+000  6.6059916569434236E+000
       Si  9.9966998556961717E-001 -1.8050382417561426E+000  8.2916366826796235E+000
       Si  2.6332005012381876E-001  3.4152075290750399E+000  6.4025112861203244E+000
       Si  1.4053552749375866E+000  5.1811546234440609E-001  6.3503222797286281E+000
       O -2.9049435989325927E+000  4.6644105474489441E+000  7.6323759831406619E+000
       O  6.5550669329312239E+000 -1.5199422268984986E+000  6.6243606407645812E+000
       O  1.4638867448871136E+000  4.3306734048010753E+000  5.7943536877074457E+000
       O -9.5066369793157957E-001  3.1483673278877786E+000  5.3722674528592673E+000
       O -2.9668867922672149E-001  3.9910277639988432E+000  7.8362114649167642E+000
       O  1.5647774097069003E+000 -3.4128385998403193E-001  7.7528310869110371E+000
       O  1.0257747286493235E+000  2.0351820093805775E+000  6.9158563797223982E+000
       O  9.2679295159259401E-001 -1.7861221782033914E+000  9.8983342982114308E+000
       O  2.9160436862171748E+000  7.0081268256403018E-001  5.7843311853106494E+000
       O  2.7381675788805454E-001 -7.5255297093830373E-002  5.3612817000887656E+000
       O  5.4490828029130496E+000  1.6335089174767066E+000  6.9099599976038020E+000
       O -1.7476003336083259E+000  1.0148595738363384E+000  7.9024373226517151E+000
       O  3.4731434146399538E+000  3.7989401130529599E+000  8.8145257286927361E+000
       O  2.5414228603767679E+000  5.2119603241580137E+000  1.0509972946485011E+000
       O -1.3404452544572529E+000  5.5796362325718052E+000  6.9934110898771784E-001
       O  9.8669867660253907E-001  3.0396987018854182E+000  7.1160638006332266E-001
       Ca  9.3124763802324075E+000  3.3406117555600394E+000  1.7392223982851479E-002
       Ca -3.1830508050064670E+000  8.2626654498271339E+000  3.6745208769735287E+000
       Ca  1.0218438640668490E-001  1.1452367052192191E+001  3.2694409293907238E+000
       Ca -4.3301233061718651E+000  1.1727151953643352E+001  3.9437093348892986E+000
       Ca  9.9481224631898868E-001  7.7882636473963256E+000  3.5227568644816003E+000
       Si  3.4829294002111402E+000  1.2692331403417064E+001  1.9617258427657160E+000
       Si  4.2589580282552548E+000  7.5451228113342284E+000  3.7469311729259855E+000
       Si  3.0632678846942607E+000  1.0370547053568128E+001  3.9137821538731856E+000
       O  7.4021083717745038E+000  6.1623395984809735E+000  2.6102706104673112E+000
       O -2.0835991287805662E+000  1.2373040224149566E+001  3.5318636193452755E+000
       O  3.0565098919852778E+000  6.5969394458464050E+000  4.3004719046144375E+000
       O  5.4131983247093229E+000  7.7478471355140774E+000  4.8744567231083407E+000
       O  4.9318556800709343E+000  7.0697080544300803E+000  2.3206838466335702E+000
       O  2.7388239541220294E+000  1.1374940449165550E+001  2.6360663386110788E+000
       O  3.5551127125449442E+000  8.9484948436944087E+000  3.2464161699612402E+000
       O  3.5769564032724084E+000  1.2534623898689386E+001  3.5945486855398628E-001
       O  1.5671333534773193E+000  1.0049073374259637E+001  4.4532887600559139E+000
       O  4.1698987316345288E+000  1.0960237786561386E+001  4.9391388311380089E+000
       O -9.6616408056392977E-001  9.1869480114850930E+000  3.3094533061343103E+000
       O -3.8158080304313415E+000  1.0065514245106277E+001  2.3889668336032459E+000
       O  1.5341091454175204E+000  7.7077599374173698E+000  1.2110792752923636E+000
       O  1.9606979971140948E+000  5.8523730170061903E+000  9.3259244187080306E+000
       O  5.8002310713482643E+000  5.1370544309952040E+000  9.4508303286230468E+000
       O  3.5939939678972102E+000  7.8343827903922696E+000  9.3927342532806737E+000
       Ca  5.1900801440866671E+000  9.4560271380738765E+000  6.5637167263527925E+000
       Ca  1.9306302162097808E+000  6.2568327353727682E+000  6.9772612498936324E+000
       Ca  6.2882908690849000E+000  6.0624095827425464E+000  6.3857630746481622E+000
       Ca  9.9532912501259818E-001  9.8777111224192193E+000  6.6059344217831768E+000
       Si -1.4714385966655106E+000  5.0645188674902553E+000  8.2916441028008894E+000
       Si -2.2079287118180413E+000  1.0284647882733067E+001  6.4025015366577440E+000
       Si -1.0658482577501887E+000  7.3875835438991331E+000  6.3502726480129645E+000
       O -5.3761495729263524E+000  1.1533829995511290E+001  7.6323623298171777E+000
       O  4.0839111296438571E+000  5.3495672002054873E+000  6.6244113925057881E+000
       O -1.0073634253434232E+000  1.1200168047728761E+001  5.7943479926406436E+000
       O -3.4218761692358561E+000  1.0017865547216308E+001  5.3722125048013369E+000
       O -2.7678603627606102E+000  1.0860529598994992E+001  7.8362036300048672E+000
       O -9.0652380356986895E-001  6.5283884113937827E+000  7.7529289909959447E+000
       O -1.4453660798315837E+000  8.9046817874364859E+000  6.9158141592633724E+000
       O -1.5444015234912567E+000  5.0833942170036650E+000  9.8983318200846782E+000
       O  4.4487097889624927E-001  7.5704003587631341E+000  5.7843790970668385E+000
       O -2.1974294487688999E+000  6.7942959820798841E+000  5.3612432877816092E+000
       O  2.9777844422081752E+000  8.5030962554828662E+000  6.9099760630805305E+000
       O -4.2189084757612552E+000  7.8843221497628582E+000  7.9023639890396433E+000
       O  1.0019968374362993E+000  1.0668448718571897E+001  8.8144892274069182E+000
       O  7.0248095681867864E-002  1.2081506655588134E+001  1.0510223071012339E+000
       O -3.8116439644633475E+000  1.2449061814847807E+001  6.9933612474459883E-001
       O -1.4848554904825799E+000  9.9092321753432575E+000  7.1140321086621627E-001
       Ca  6.8409408628920216E+000  1.0209846960343436E+001  1.7137152037007483E-002
       H  3.1718204926010154E+000  8.7295126900609121E-001  5.7571326844019521E-001
       H  4.6723266241916210E+000  1.3374437298863653E+000  6.5453603748705946E-001
       H  5.1023965293775255E+000 -2.7531632779655957E-001  9.5378567622529697E+000
       H  4.9590861591176765E+000 -1.8847558250842109E+000  9.2962459305787579E+000
       H  8.0977414716495986E+000 -2.5900328664566170E+000  9.9811348850565178E+000
       H  9.0599881863522640E+000 -1.9672329131804112E+000  8.8569631379021221E+000
       H  5.6135412531491280E+000  1.7825242018503902E+000  9.9090648674407262E+000
       H  5.9493680473438371E+000  1.1919846450333473E+000  8.4141627372353067E+000
       H  3.8851736450782495E+000  3.2770079733136148E+000  9.6287785523368434E+000
       H  4.2134524877827850E+000  4.4589964327218334E+000  8.6858021300316217E+000
       H  1.9400579432201197E+000  4.5266625841339687E+000  6.4406869104822739E-001
       H  2.0989617661833431E+000  6.1119352176141266E+000  9.6986552979888740E-001
       H -2.0625897433086351E+000  5.8459934205485968E+000  1.3407723992752361E+000
       H -1.0254786052424629E+000  6.4531053968294945E+000  2.8915329934827205E-001
       H  1.0787055353245201E+000  2.7999905640967309E+000  1.6805466051961451E+000
       H  1.4247559454158452E+000  2.1994385805608232E+000  2.4768670903540210E-001
       H  7.0045169149135189E-001  7.7424787314787666E+000  5.7577492340062109E-001
       H  2.2010179292101197E+000  8.2067818419821155E+000  6.5481733352829719E-001
       H  2.6307581198157717E+000  6.5942761617730197E+000  9.5378994680217719E+000
       H  2.4880220971000200E+000  4.9848151229687172E+000  9.2962374627626989E+000
       H  5.6265322436478504E+000  4.2792543724341634E+000  9.9809911851530817E+000
       H  6.5887851168260809E+000  4.9022005763443381E+000  8.8568317606939821E+000
       H  3.1420092839854341E+000  8.6521215757860706E+000  9.9092844218777234E+000
       H  3.4779512032180864E+000  8.0614725025072982E+000  8.4142668765548994E+000
       H  1.4139191296043783E+000  1.0146422319410236E+001  9.6286897279577239E+000
       H  1.7423694644025085E+000  1.1328497074754278E+001  8.6859330280242819E+000
       H -5.3136901114837898E-001  1.1396480855958249E+001  6.4408094772303981E-001
       H -3.7195560334188954E-001  1.2981655389096973E+001  9.7008911996588887E-001
       H -4.5338467970818970E+000  1.2715543371958168E+001  1.3406386484758070E+000
       H -3.4965832188296311E+000  1.3322497724711074E+001  2.8912250991862193E-001
       H -1.3931326434005618E+000  9.6692210747552085E+000  1.6803148203376677E+000
       H -1.0466690260430134E+000  9.0691891214814380E+000  2.4738495569057417E-001
       H  6.0439257255854395E-001  5.2810332195504834E+000  4.4738630751863591E+000
       H  1.3844362223898423E+000  2.7164898137469331E+000  4.2002959098551802E+000
       H -4.9828328213464612E-001  3.7011075252057530E+000  2.4033485506405947E+000
       H  6.3646490902251109E+000 -1.2570549802868205E+000  5.6861138139725895E+000
       H  5.6116154889654339E+000  1.2400834672062242E+000  6.0205655836748289E+000
       H -8.2765858907755907E-001  1.3541191043567804E+000  7.9469827838542058E+000
       H -1.8665555048828175E+000  1.2150889119151275E+001  4.4738242230928593E+000
       H -1.0881600545984020E+000  9.5868621910311997E+000  4.1996381774704696E+000
       H -2.9702951252582541E+000  1.0572244454071273E+001  2.4020928865384459E+000
       H  3.8932560450186502E+000  5.6127079048153377E+000  5.6862959897543028E+000
       H  3.1391342029555092E+000  8.1105626469122463E+000  6.0200610776856296E+000
       H -3.2990235311510587E+000  8.2237459014464545E+000  7.9467690731785652E+000
     &END COORD
     &KIND "Ca"
       BASIS_SET "DZVP-MOLOPT-SR-GTH-q10"
       ELEMENT "Ca"
       POTENTIAL "GTH-PBE"
       &POTENTIAL
         4 6
           3.9000000000000001E-001 2 -4.1670722199999997E+000 -1.5837978100000001E+000
         3
           2.8935571999999998E-001 2  2.0531876350000001E+001 -7.1297857799999997E+000
                                                               9.2045138699999995E+000
           3.2788205999999998E-001 2  5.8056051300000000E+000 -4.2875335999999997E-001
                                                               5.0730781999999996E-001
           6.7961713000000001E-001 1  5.8068259999999997E-002
         # Potential name: GTH-PBE for element symbol: CA
         # Potential read from the potential filename: POTENTIAL
       &END POTENTIAL
     &END KIND
     &KIND "Si"
       BASIS_SET "DZVP-MOLOPT-SR-GTH-q4"
       ELEMENT "Si"
       POTENTIAL "GTH-PBE"
       &POTENTIAL
         2 2
           4.4000000000000000E-001 1 -6.2692883300000002E+000
         2
           4.3563383000000000E-001 2  8.9517415000000007E+000 -2.7062708199999999E+000
                                                               3.4937806000000000E+000
           4.9794218000000001E-001 1  2.4312767300000000E+000
         # Potential name: GTH-PBE for element symbol: SI
         # Potential read from the potential filename: POTENTIAL
       &END POTENTIAL
     &END KIND
     &KIND "O"
       BASIS_SET "DZVP-MOLOPT-SR-GTH-q6"
       ELEMENT "O"
       POTENTIAL "GTH-PBE"
       &POTENTIAL
         2 4
           2.4455430000000000E-001 2 -1.6667214800000000E+001  2.4873113199999999E+000
         2
           2.2095592000000000E-001 1  1.8337458110000000E+001
           2.1133246999999999E-001 0
         # Potential name: GTH-PBE for element symbol: O
         # Potential read from the potential filename: POTENTIAL
       &END POTENTIAL
     &END KIND
     &KIND "H"
       BASIS_SET "DZVP-MOLOPT-SR-GTH-q1"
       ELEMENT "H"
       POTENTIAL "GTH-PBE"
       &POTENTIAL
         1
           2.0000000000000001E-001 2 -4.1789004399999996E+000  7.2446330999999997E-001
         0
         # Potential name: GTH-PBE for element symbol: H
         # Potential read from the potential filename: POTENTIAL
       &END POTENTIAL
     &END KIND
     &TOPOLOGY
       COORD_FILE_NAME coord.xyz
       COORD_FILE_FORMAT XYZ
       NUMBER_OF_ATOMS 138
       MULTIPLE_UNIT_CELL 1 1 1
     &END TOPOLOGY
   &END SUBSYS
   &PRINT
     &FORCES ON
     &END FORCES
     &STRESS_TENSOR ON
     &END STRESS_TENSOR
   &END PRINT
 &END FORCE_EVAL
