 # Version information for this restart file 
 # current date 2025-01-16 05:38:37.842
 # current working dir /home/zkm/CP2K/Generate_dataset/Jennite/Elastic/elastic_cp2k/example/epsilonyy/pos
 # Program compiled at                2024年 10月 05日 星期六 13:00:57 CST
 # Program compiled on                                               ubuntu-GPU2
 # Program compiled for                                                    local
 # Source code revision number                                       git:6712648
 &GLOBAL
   PRINT_LEVEL LOW
   PROJECT_NAME "geoopt"
   RUN_TYPE GEO_OPT
 &END GLOBAL
 &MOTION
   &GEO_OPT
     OPTIMIZER BFGS
     MAX_ITER 1000
     MAX_DR  3.0000000000000001E-003
     MAX_FORCE  4.4999999999999999E-004
     RMS_DR  1.5000000000000000E-003
     RMS_FORCE  2.9999999999999997E-004
     STEP_START_VAL 34
     KEEP_SPACE_GROUP F
     &BFGS
       TRUST_RADIUS  2.0000000000000001E-001
     &END BFGS
   &END GEO_OPT
   &PRINT
     &TRAJECTORY SILENT
       FORMAT XMOL
     &END TRAJECTORY
     &CELL SILENT
     &END CELL
     &RESTART SILENT
       BACKUP_COPIES 0
     &END RESTART
     &RESTART_HISTORY OFF
     &END RESTART_HISTORY
   &END PRINT
 &END MOTION
 &FORCE_EVAL
   METHOD QS
   STRESS_TENSOR ANALYTICAL
   &DFT
     BASIS_SET_FILE_NAME BASIS_MOLOPT
     POTENTIAL_FILE_NAME POTENTIAL
     MULTIPLICITY 1
     CHARGE 0
     &SCF
       MAX_SCF 25
       EPS_SCF  9.9999999999999995E-008
       IGNORE_CONVERGENCE_FAILURE T
       &OT T
         ALGORITHM STRICT
         MINIMIZER DIIS
         LINESEARCH 2PNT
         PRECONDITIONER FULL_KINETIC
       &END OT
       &OUTER_SCF T
         EPS_SCF  9.9999999999999995E-008
         MAX_SCF 20
       &END OUTER_SCF
       &PRINT
         &RESTART SILENT
           BACKUP_COPIES 0
         &END RESTART
       &END PRINT
     &END SCF
     &QS
       EPS_DEFAULT  9.9999999999999998E-013
     &END QS
     &MGRID
       NGRIDS 4
       CUTOFF  5.0000000000000000E+002
       REL_CUTOFF  7.0000000000000000E+001
     &END MGRID
     &XC
       DENSITY_CUTOFF  1.0000000000000000E-010
       GRADIENT_CUTOFF  1.0000000000000000E-010
       TAU_CUTOFF  1.0000000000000000E-010
       &XC_FUNCTIONAL NO_SHORTCUT
         &PBE T
           PARAMETRIZATION PBESOL
         &END PBE
       &END XC_FUNCTIONAL
       &VDW_POTENTIAL
         POTENTIAL_TYPE PAIR_POTENTIAL
         &PAIR_POTENTIAL
           TYPE DFTD3(BJ)
           PARAMETER_FILE_NAME dftd3.dat
           REFERENCE_FUNCTIONAL "PBEsol"
         &END PAIR_POTENTIAL
       &END VDW_POTENTIAL
     &END XC
     &POISSON
       POISSON_SOLVER PERIODIC
       PERIODIC XYZ
     &END POISSON
   &END DFT
   &SUBSYS
     &CELL
       A  1.0581844796300002E+001  0.0000000000000000E+000  0.0000000000000000E+000
       B -4.9423550439000010E+000  1.3876354427300001E+001  0.0000000000000000E+000
       C -9.5659227150000015E-001 -2.7822823379999999E+000  1.0163400995300002E+001
       PERIODIC XYZ
       MULTIPLE_UNIT_CELL 1 1 1
     &END CELL
     &COORD
       Ca -7.2724374785080614E-001  1.3282623569441032E+000  3.6769826447463685E+000
       Ca  2.5625876720409790E+000  4.5674106176049243E+000  3.2992790228888560E+000
       Ca -1.8551532453183723E+000  4.8325449429383402E+000  3.9556757416719139E+000
       Ca  3.4458386136547321E+000  8.7957245337061840E-001  3.5256051004101518E+000
       Si  5.9743918276068744E+000  5.8140648411244102E+000  1.9811119089498841E+000
       Si  6.7339898857420755E+000  6.2002187163795397E-001  3.7835741522462638E+000
       Si  5.5573734259741521E+000  3.4607747152863118E+000  3.9232511053262877E+000
       O  9.9083391701642434E+000 -7.8833650518988307E-001  2.6046792821274760E+000
       O  3.6306116224472534E-001  5.5269452449532439E+000  3.5861798476041149E+000
       O  5.4989527732070069E+000 -3.0692917621449861E-001  4.3074127157512638E+000
       O  7.8752157241319996E+000  8.0434128912579772E-001  4.9316307454700494E+000
       O  7.4396506816086330E+000  1.1549645002570297E-001  2.3842477799737818E+000
       O  5.2510838133120421E+000  4.4857961446326975E+000  2.6600958797290066E+000
       O  6.0772699993095092E+000  2.0413450462076441E+000  3.2577024483331454E+000
       O  6.0112466739310317E+000  5.6659863077143333E+000  3.7415726859419185E-001
       O  4.0507091179043924E+000  3.1424443978512042E+000  4.4440734295331872E+000
       O  6.6512228242714002E+000  4.0619231050610889E+000  4.9576171999490120E+000
       O  1.4879294578523794E+000  2.2791882591783801E+000  3.3074222155116697E+000
       O -1.3658363275607963E+000  3.1561614563330038E+000  2.3958460222018272E+000
       O  3.9791908548149366E+000  7.7888341425932706E-001  1.2104756176447182E+000
       O  4.5245087585679462E+000 -1.0330462497123845E+000  9.3163138344763254E+000
       O  8.2967089782805061E+000 -1.7674390504265809E+000  9.4578266588649011E+000
       O  6.1545396941860897E+000  9.6626612378863908E-001  9.3929092843551114E+000
       Ca  7.7019880335502346E+000  2.5570505117902904E+000  6.5909172149883632E+000
       Ca  4.4194674053049789E+000 -6.5937334171905049E-001  6.9451180221031548E+000
       Ca  8.7769138832410487E+000 -8.8671683523160971E-001  6.4225520939246419E+000
       Ca  3.5040283280801470E+000  2.9757252809601655E+000  6.6067090707122995E+000
       Si  1.0483820175002090E+000 -1.8896477462611057E+000  8.3035093767313395E+000
       Si  2.8736640253018125E-001  3.3548858190817765E+000  6.4154394448965713E+000
       Si  1.4065079127042379E+000  4.6496644403369364E-001  6.3489232678892780E+000
       O -2.8448479505026754E+000  4.6339100147563190E+000  7.6869456363756479E+000
       O  6.5689849966254608E+000 -1.6068717329234814E+000  6.6276867067121845E+000
       O  1.5051115714800025E+000  4.2431526735562040E+000  5.7986185432065538E+000
       O -9.2079901176519330E-001  3.1063042047153684E+000  5.3738934865360877E+000
       O -2.5441053744307945E-001  3.9726729293226786E+000  7.8366607447501675E+000
       O  1.6253634994682484E+000 -4.5309222791703035E-001  7.7035683139875113E+000
       O  9.7671872873495924E-001  1.9498989738131820E+000  6.9712154322661330E+000
       O  1.0085595069113944E+000 -1.8237684374147107E+000  9.9126944015974043E+000
       O  2.9103103523959803E+000  7.0660747185884099E-001  5.7858428349023772E+000
       O  2.7761498590199835E-001 -1.4167039395722153E-001  5.3625117631307937E+000
       O  5.5000108400464622E+000  1.6302875053655692E+000  6.9134800919452086E+000
       O -1.7119070903622924E+000  9.5620296012404049E-001  7.9039628126442869E+000
       O  3.5177609758639061E+000  3.7675325054301547E+000  8.8215852819300125E+000
       O  2.5745955720240459E+000  5.1944357691110863E+000  1.0609702353359500E+000
       O -1.3119391431380845E+000  5.5663841079365826E+000  7.0452482812323758E-001
       O  9.8864761036496740E-001  3.0563505695441160E+000  7.1192716079894214E-001
       Ca  9.2896400257180733E+000  3.3368058319336180E+000  2.2056316994184418E-002
       Ca -3.1955071383260907E+000  8.2667423600591103E+000  3.6841915632478557E+000
       Ca  8.0697982661186093E-002  1.1520828196833488E+001  3.3059577013725945E+000
       Ca -4.3357612953666207E+000  1.1768545309406001E+001  3.9642993954389438E+000
       Ca  9.8798254054415457E-001  7.8099050497238531E+000  3.5472780079238659E+000
       Si  3.5023903610601086E+000  1.2740471789709723E+001  1.9828060585907388E+000
       Si  4.2738536182264193E+000  7.5452518973953859E+000  3.7882220087795830E+000
       Si  3.0777980245642906E+000  1.0396975798345622E+001  3.9505924994982098E+000
       O  7.4373052434883826E+000  6.1542652803405291E+000  2.6059166141767030E+000
       O -2.1175380453749035E+000  1.2470937337807559E+001  3.5879677675222070E+000
       O  3.0591529420965147E+000  6.5918387647704044E+000  4.3057570449265690E+000
       O  5.4119169767318116E+000  7.7373759722334565E+000  4.9360480435582863E+000
       O  4.9751381396889780E+000  7.0769833372956512E+000  2.3701812058688478E+000
       O  2.7837885231905433E+000  1.1413626608723137E+001  2.6762581259998788E+000
       O  3.5934446965677727E+000  8.9683087368667493E+000  3.3084011419500956E+000
       O  3.5388381401932558E+000  1.2597518645638639E+001  3.7517478419670713E-001
       O  1.5653343592094431E+000  1.0082397248358625E+001  4.4551286037578386E+000
       O  4.1666845195490509E+000  1.0987384396386663E+001  4.9984951189718343E+000
       O -9.8107822464111605E-001  9.2162089152312578E+000  3.3126672072449295E+000
       O -3.8355178370523064E+000  1.0097005678400842E+001  2.3950406357412808E+000
       O  1.5547914128785332E+000  7.6982938924457116E+000  1.2590012248442952E+000
       O  2.0111867584862377E+000  5.8449962448885779E+000  9.3194336115973400E+000
       O  5.8450741187976387E+000  5.1237412894774650E+000  9.4546557827266735E+000
       O  3.6399200061415016E+000  7.8455183184678585E+000  9.4007911422202319E+000
       Ca  5.2124551148429177E+000  9.4834376354063323E+000  6.6015538248939478E+000
       Ca  1.9503282350756495E+000  6.2346042846039493E+000  6.9554931004685185E+000
       Ca  6.3181627049459603E+000  6.0425704885291962E+000  6.4240783554476621E+000
       Ca  1.0147938501263494E+000  9.9031969657850549E+000  6.6193573656305933E+000
       Si -1.4078418408581508E+000  5.0510634136033383E+000  8.3247974468348449E+000
       Si -2.1868104079371657E+000  1.0313309679986245E+001  6.4092402331549927E+000
       Si -1.0549520276317166E+000  7.3935423952741086E+000  6.3597085191545109E+000
       O -5.3415565681309936E+000  1.1577004736889299E+001  7.6828955969046859E+000
       O  4.1034573816880497E+000  5.3308706401460348E+000  6.6279715119114480E+000
       O -9.9421464232895729E-001  1.1242294580391452E+001  5.8008951114438903E+000
       O -3.4036478014383289E+000  1.0044847424071813E+001  5.3806124354877243E+000
       O -2.7394193795324453E+000  1.0891931973393199E+001  7.8448585975683107E+000
       O -8.8188639017867954E-001  6.5249649274731816E+000  7.7595010948240963E+000
       O -1.4256845927891739E+000  8.9233724794126736E+000  6.9136078112397614E+000
       O -1.4284376211557177E+000  5.0611670493032355E+000  9.9371795555686759E+000
       O  4.5611631132386654E-001  7.5763928502826561E+000  5.7916843675897249E+000
       O -2.1890671669522703E+000  6.7962850384512627E+000  5.3717951678076536E+000
       O  2.9947195239570283E+000  8.5153576116609546E+000  6.9184156429802863E+000
       O -4.1840704446827743E+000  7.8920560358111977E+000  7.9063120042245627E+000
       O  1.0465252318140597E+000  1.0709401612512760E+001  8.8233933783802101E+000
       O  3.4154025487053354E-002  1.2132964804422951E+001  1.0638963518811602E+000
       O -3.8444556785438277E+000  1.2517888333167715E+001  6.3458747312015618E-001
       O -1.4729881076360498E+000  9.9389978621090673E+000  7.1022251161892580E-001
       Ca  6.8107627723680926E+000  1.0248233991882032E+001  2.1894139831939375E-002
       H  3.1439117011807038E+000  8.3548413211840011E-001  5.7344467389112097E-001
       H  4.6478984841628810E+000  1.2936074487693854E+000  6.7565965768027914E-001
       H  5.1986452951305031E+000 -2.9372637079663816E-001  9.5256106827533689E+000
       H  5.0357804381982518E+000 -1.9063994735640375E+000  9.2949825117808977E+000
       H  8.1291278270568270E+000 -2.6181455259000992E+000  9.9958015089424634E+000
       H  9.0949354639044628E+000 -2.0192621855408208E+000  8.8779749074349361E+000
       H  5.6898381619903438E+000  1.7752491458859991E+000  9.9142814760130307E+000
       H  6.0118687399983664E+000  1.1816154456034995E+000  8.4157929027637639E+000
       H  3.9241810676271243E+000  3.2501108485665275E+000  9.6375891325973022E+000
       H  4.2598591406235622E+000  4.4253283507075478E+000  8.6914207210435031E+000
       H  1.9627192754788660E+000  4.5168621384159220E+000  6.5415285051035155E-001
       H  2.1349370528890765E+000  6.0948233747910621E+000  9.8971628382154075E-001
       H -2.0317409496047736E+000  5.8349800533561416E+000  1.3500056707116050E+000
       H -9.9681637612852769E-001  6.4431634918199929E+000  3.0247475074788494E-001
       H  1.0776892548425059E+000  2.7987820205425189E+000  1.6775645367144374E+000
       H  1.4175471224249108E+000  2.2127875941885851E+000  2.4700731370914963E-001
       H  7.2128262673316734E-001  7.7339474142974902E+000  6.2157154898698141E-001
       H  2.2095050663435867E+000  8.2094322208568631E+000  7.0161432929271839E-001
       H  2.6784605760218163E+000  6.5912170610857501E+000  9.5286054131156721E+000
       H  2.5398204184815687E+000  4.9795790432598110E+000  9.2880065523046387E+000
       H  5.6674152025679536E+000  4.2706563855374151E+000  9.9919565358922746E+000
       H  6.6448356775676958E+000  4.8784932413243691E+000  8.8749738219049643E+000
       H  3.1974977755514242E+000  8.6692061959208768E+000  9.9154465979245057E+000
       H  3.5090575271734634E+000  8.0682750714732379E+000  8.4227455402041524E+000
       H  1.4644131247432532E+000  1.0195840953236321E+001  9.6388413341033168E+000
       H  1.7802532076994466E+000  1.1372292747245092E+001  8.6815125007498981E+000
       H -5.5324385034276446E-001  1.1437125238027743E+001  6.5311401022836690E-001
       H -4.0611142175805165E-001  1.3030341543252183E+001  9.6486261402095053E-001
       H -4.5324913801485316E+000  1.2774922549658429E+001  1.3185805585421027E+000
       H -3.5189408292480744E+000  1.3401166708212083E+001  2.6289133802297932E-001
       H -1.3871608529670414E+000  9.7045947544517137E+000  1.6813957910392499E+000
       H -1.0346883833590923E+000  9.0904453286868421E+000  2.6325959919388608E-001
       H  5.8954944841223733E-001  5.2908089472742157E+000  4.5196503149015061E+000
       H  1.3665974941950840E+000  2.6821850477353619E+000  4.1966761495276863E+000
       H -5.0470241172207175E-001  3.6330847064632419E+000  2.4076514009376604E+000
       H  6.3949322932213226E+000 -1.3525798008704963E+000  5.6865699619785932E+000
       H  5.6701849213449664E+000  1.2198466918855071E+000  6.0340263212314351E+000
       H -7.8786374713389229E-001  1.2906831262515803E+000  7.9137756742302754E+000
       H -1.8893553272269110E+000  1.2237338838516830E+001  4.5229817452439489E+000
       H -1.1050145143608352E+000  9.6153223830315149E+000  4.2026554511604290E+000
       H -2.9727473164350187E+000  1.0571102669469147E+001  2.4148071412552041E+000
       H  3.9308365450145195E+000  5.5958886656528470E+000  5.6879845452671836E+000
       H  3.1784247927663798E+000  8.1188790783028644E+000  6.0355463677554182E+000
       H -3.2648516432101302E+000  8.2350526696485105E+000  7.9384334442552529E+000
     &END COORD
     &KIND "Ca"
       BASIS_SET "DZVP-MOLOPT-SR-GTH-q10"
       ELEMENT "Ca"
       POTENTIAL "GTH-PBE"
       &POTENTIAL
         4 6
           3.9000000000000001E-001 2 -4.1670722199999997E+000 -1.5837978100000001E+000
         3
           2.8935571999999998E-001 2  2.0531876350000001E+001 -7.1297857799999997E+000
                                                               9.2045138699999995E+000
           3.2788205999999998E-001 2  5.8056051300000000E+000 -4.2875335999999997E-001
                                                               5.0730781999999996E-001
           6.7961713000000001E-001 1  5.8068259999999997E-002
         # Potential name: GTH-PBE for element symbol: CA
         # Potential read from the potential filename: POTENTIAL
       &END POTENTIAL
     &END KIND
     &KIND "Si"
       BASIS_SET "DZVP-MOLOPT-SR-GTH-q4"
       ELEMENT "Si"
       POTENTIAL "GTH-PBE"
       &POTENTIAL
         2 2
           4.4000000000000000E-001 1 -6.2692883300000002E+000
         2
           4.3563383000000000E-001 2  8.9517415000000007E+000 -2.7062708199999999E+000
                                                               3.4937806000000000E+000
           4.9794218000000001E-001 1  2.4312767300000000E+000
         # Potential name: GTH-PBE for element symbol: SI
         # Potential read from the potential filename: POTENTIAL
       &END POTENTIAL
     &END KIND
     &KIND "O"
       BASIS_SET "DZVP-MOLOPT-SR-GTH-q6"
       ELEMENT "O"
       POTENTIAL "GTH-PBE"
       &POTENTIAL
         2 4
           2.4455430000000000E-001 2 -1.6667214800000000E+001  2.4873113199999999E+000
         2
           2.2095592000000000E-001 1  1.8337458110000000E+001
           2.1133246999999999E-001 0
         # Potential name: GTH-PBE for element symbol: O
         # Potential read from the potential filename: POTENTIAL
       &END POTENTIAL
     &END KIND
     &KIND "H"
       BASIS_SET "DZVP-MOLOPT-SR-GTH-q1"
       ELEMENT "H"
       POTENTIAL "GTH-PBE"
       &POTENTIAL
         1
           2.0000000000000001E-001 2 -4.1789004399999996E+000  7.2446330999999997E-001
         0
         # Potential name: GTH-PBE for element symbol: H
         # Potential read from the potential filename: POTENTIAL
       &END POTENTIAL
     &END KIND
     &TOPOLOGY
       COORD_FILE_NAME coord.xyz
       COORD_FILE_FORMAT XYZ
       NUMBER_OF_ATOMS 138
       MULTIPLE_UNIT_CELL 1 1 1
     &END TOPOLOGY
   &END SUBSYS
   &PRINT
     &FORCES ON
     &END FORCES
     &STRESS_TENSOR ON
     &END STRESS_TENSOR
   &END PRINT
 &END FORCE_EVAL
