 # Version information for this restart file 
 # current date 2025-01-16 07:09:19.390
 # current working dir /home/zkm/CP2K/Generate_dataset/Jennite/Elastic/elastic_cp2k/example/epsilonzz/pos
 # Program compiled at                2024年 10月 05日 星期六 13:00:57 CST
 # Program compiled on                                               ubuntu-GPU2
 # Program compiled for                                                    local
 # Source code revision number                                       git:6712648
 &GLOBAL
   PRINT_LEVEL LOW
   PROJECT_NAME "geoopt"
   RUN_TYPE GEO_OPT
 &END GLOBAL
 &MOTION
   &GEO_OPT
     OPTIMIZER BFGS
     MAX_ITER 1000
     MAX_DR  3.0000000000000001E-003
     MAX_FORCE  4.4999999999999999E-004
     RMS_DR  1.5000000000000000E-003
     RMS_FORCE  2.9999999999999997E-004
     STEP_START_VAL 86
     KEEP_SPACE_GROUP F
     &BFGS
       TRUST_RADIUS  2.0000000000000001E-001
     &END BFGS
   &END GEO_OPT
   &PRINT
     &TRAJECTORY SILENT
       FORMAT XMOL
     &END TRAJECTORY
     &CELL SILENT
     &END CELL
     &RESTART SILENT
       BACKUP_COPIES 0
     &END RESTART
     &RESTART_HISTORY OFF
     &END RESTART_HISTORY
   &END PRINT
 &END MOTION
 &FORCE_EVAL
   METHOD QS
   STRESS_TENSOR ANALYTICAL
   &DFT
     BASIS_SET_FILE_NAME BASIS_MOLOPT
     POTENTIAL_FILE_NAME POTENTIAL
     MULTIPLICITY 1
     CHARGE 0
     &SCF
       MAX_SCF 25
       EPS_SCF  9.9999999999999995E-008
       IGNORE_CONVERGENCE_FAILURE T
       &OT T
         ALGORITHM STRICT
         MINIMIZER DIIS
         LINESEARCH 2PNT
         PRECONDITIONER FULL_KINETIC
       &END OT
       &OUTER_SCF T
         EPS_SCF  9.9999999999999995E-008
         MAX_SCF 20
       &END OUTER_SCF
       &PRINT
         &RESTART SILENT
           BACKUP_COPIES 0
         &END RESTART
       &END PRINT
     &END SCF
     &QS
       EPS_DEFAULT  9.9999999999999998E-013
     &END QS
     &MGRID
       NGRIDS 4
       CUTOFF  5.0000000000000000E+002
       REL_CUTOFF  7.0000000000000000E+001
     &END MGRID
     &XC
       DENSITY_CUTOFF  1.0000000000000000E-010
       GRADIENT_CUTOFF  1.0000000000000000E-010
       TAU_CUTOFF  1.0000000000000000E-010
       &XC_FUNCTIONAL NO_SHORTCUT
         &PBE T
           PARAMETRIZATION PBESOL
         &END PBE
       &END XC_FUNCTIONAL
       &VDW_POTENTIAL
         POTENTIAL_TYPE PAIR_POTENTIAL
         &PAIR_POTENTIAL
           TYPE DFTD3(BJ)
           PARAMETER_FILE_NAME dftd3.dat
           REFERENCE_FUNCTIONAL "PBEsol"
         &END PAIR_POTENTIAL
       &END VDW_POTENTIAL
     &END XC
     &POISSON
       POISSON_SOLVER PERIODIC
       PERIODIC XYZ
     &END POISSON
   &END DFT
   &SUBSYS
     &CELL
       A  1.0581844796300002E+001  0.0000000000000000E+000  0.0000000000000000E+000
       B -4.9423550439000010E+000  1.3738964779500000E+001  0.0000000000000000E+000
       C -9.5659227150000015E-001 -2.7547349881000005E+000  1.0265035005300000E+001
       PERIODIC XYZ
       MULTIPLE_UNIT_CELL 1 1 1
     &END CELL
     &COORD
       Ca -7.4311226982619361E-001  1.3977815126504107E+000  3.6508519914756672E+000
       Ca  2.5504712350215613E+000  4.5803526958126763E+000  3.3029056668031047E+000
       Ca -1.8767435346817101E+000  4.8572727512302629E+000  3.9353119276940198E+000
       Ca  3.4625667988137798E+000  9.1950410758297529E-001  3.5258087286706101E+000
       Si  5.9549885866535677E+000  5.8473433715663612E+000  1.9642150394626197E+000
       Si  6.7320589606660413E+000  7.0474952178213313E-001  3.7608565172622872E+000
       Si  5.5222381180810167E+000  3.5262070095225737E+000  3.9544848160226458E+000
       O  4.9585780566555888E+000  1.3042919182599103E+001  2.5657208030195884E+000
       O  3.6045487210112581E-001  5.5029114461035089E+000  3.5635477866227490E+000
       O  5.5197583682462961E+000 -2.5424531184282984E-001  4.2712352979641324E+000
       O  7.8648450983957217E+000  8.8387439315031602E-001  4.9166784091048985E+000
       O  7.4659226722534324E+000  2.6965507619000129E-001  2.3490801139119402E+000
       O  5.2005690837816561E+000  4.5652821518530065E+000  2.7041353434890918E+000
       O  6.0406819917614527E+000  2.1223555860845771E+000  3.2701952525004843E+000
       O  5.9805873373219489E+000  5.6757314253020539E+000  3.6127570253515728E-001
       O  4.0243011311413985E+000  3.1847052032143415E+000  4.4800009133506942E+000
       O  6.6277133951453653E+000  4.1006621039807474E+000  4.9895184292072194E+000
       O  1.4954187838000250E+000  2.2807777993464828E+000  3.2794982854901225E+000
       O -1.3802466251124859E+000  3.2124553564466591E+000  2.3490577308132510E+000
       O  3.9549201324812864E+000  8.4172956565715085E-001  1.2069465716982790E+000
       O  4.4715137054764700E+000 -9.9412439500897631E-001  9.3483443837622584E+000
       O  8.3046316211287561E+000 -1.7180614381929671E+000  9.4810142570302656E+000
       O  6.1290258268189906E+000  1.0157835325716429E+000  9.4741405175420681E+000
       Ca  7.6939249009179749E+000  2.6048607517840501E+000  6.5880603342233046E+000
       Ca  4.4102539935217120E+000 -5.8853839472103620E-001  6.9893814077669738E+000
       Ca  8.7719343222950172E+000 -7.9996116356511116E-001  6.4226649254708263E+000
       Ca  3.4963057789942047E+000  3.0163129126367370E+000  6.6371154277809996E+000
       Si  1.0566839803151347E+000 -1.8237298190366229E+000  8.3198882133772436E+000
       Si  2.8830541427502365E-001  3.4001635567273918E+000  6.4105970985311629E+000
       Si  1.4116861584520990E+000  5.0099443174166303E-001  6.3292627698171060E+000
       O -2.8668916900276664E+000  4.6655424653403923E+000  7.6955729074838279E+000
       O  6.5589219999267012E+000 -1.5023355173559332E+000  6.6268768399600964E+000
       O  1.5054264643080593E+000  4.3184796851509670E+000  5.8422989352644654E+000
       O -9.1104750056492989E-001  3.1655819252909847E+000  5.3544678798956724E+000
       O -2.7528637674151524E-001  3.9406684453348437E+000  7.8563339752620243E+000
       O  1.6352659562335632E+000 -4.0322612305396816E-001  7.6958471616405300E+000
       O  9.9490403340344735E-001  1.9920197158391240E+000  6.9239828518302566E+000
       O  1.0281728414883802E+000 -1.7630101430509435E+000  9.9264930603423629E+000
       O  2.9185038678748438E+000  7.2178854231155265E-001  5.7706232046372046E+000
       O  2.6371201932884003E-001 -6.8448669869472900E-002  5.3451976564041086E+000
       O  5.5032865512738898E+000  1.6474227943843183E+000  6.9280653976959297E+000
       O -1.7299892420980405E+000  1.0288268578071296E+000  7.9204152523338207E+000
       O  3.5589013781893444E+000  3.8129396729899185E+000  8.8435995630031847E+000
       O  2.5459463440366283E+000  5.2112084747272318E+000  1.0667513691511230E+000
       O -1.3289657676840279E+000  5.5982636635576224E+000  6.4049416405860704E-001
       O  9.8129606198313324E-001  3.0394676017018267E+000  7.0477095782511701E-001
       Ca  9.2902621572597770E+000  3.3640218158757795E+000 -3.4498740273487212E-002
       Ca -3.2142787933669519E+000  8.2672837286944478E+000  3.6509517402720499E+000
       Ca  7.9477161949797481E-002  1.1449982520053268E+001  3.3030365833581588E+000
       Ca -4.3479475319563701E+000  1.1726836526270827E+001  3.9352333429138553E+000
       Ca  9.9144305720568970E-001  7.7889952630393973E+000  3.5259615898904957E+000
       Si  3.4838112812045243E+000  1.2717030581339852E+001  1.9641637065804414E+000
       Si  4.2608002319224321E+000  7.5741042908123282E+000  3.7608714402443009E+000
       Si  3.0511056220978343E+000  1.0395576847191704E+001  3.9545665372519903E+000
       O  7.4297085789070509E+000  6.1732516332289391E+000  2.5657985109135657E+000
       O -2.1107353976532059E+000  1.2372395987768439E+001  3.5635594007403486E+000
       O  3.0485623454101618E+000  6.6150883723379836E+000  4.2712781084030267E+000
       O  5.3935993823951698E+000  7.7534454169357705E+000  4.9167506122080287E+000
       O  4.9947107294505617E+000  7.1389125752913261E+000  2.3491848938294564E+000
       O  2.7295412308991125E+000  1.1434865482343415E+001  2.7041075356244981E+000
       O  3.5694813433815664E+000  8.9917548786641373E+000  3.2702688921516927E+000
       O  3.5093121985865423E+000  1.2545222436389341E+001  3.6129005104049999E-001
       O  1.5531740153485367E+000  1.0054214440756208E+001  4.4799759463073547E+000
       O  4.1566302920592442E+000  1.0970032446741826E+001  4.9895886127543028E+000
       O -9.7572707196021535E-001  9.1503066346759869E+000  3.2795483387021376E+000
       O -3.8514221346459845E+000  1.0081938315264866E+001  2.3490693206251336E+000
       O  1.4836205512407648E+000  7.7112774572567782E+000  1.2069669884555552E+000
       O  2.0001479099716546E+000  5.8754345089114093E+000  9.3483359773378361E+000
       O  5.8332368808034776E+000  5.1513099019477471E+000  9.4811173731135465E+000
       O  3.6577684182825694E+000  7.8850712184578118E+000  9.4740827108155425E+000
       Ca  5.2229793675396747E+000  9.4746535805085212E+000  6.5881441298860342E+000
       Ca  1.9387737940495666E+000  6.2807573052575965E+000  6.9891800250694294E+000
       Ca  6.3007791585413768E+000  6.0695194836614839E+000  6.4226861862556346E+000
       Ca  1.0252888030332659E+000  9.8856998501372075E+000  6.6371798747760993E+000
       Si -1.4146164945427873E+000  5.0456782504761915E+000  8.3198065930936753E+000
       Si -2.1827771160458309E+000  1.0269784159273858E+001  6.4106590446360112E+000
       Si -1.0595286916367654E+000  7.3705231804753844E+000  6.3292663188120963E+000
       O -5.3379667209904342E+000  1.1535119884657972E+001  7.6955975655866000E+000
       O  4.0876809900856195E+000  5.3671144495429353E+000  6.6268316646956906E+000
       O -9.6565697640797321E-001  1.1188131707752149E+001  5.8424827332856930E+000
       O -3.3821482032210888E+000  1.0035181579975447E+001  5.3544653554827466E+000
       O -2.7465088506949482E+000  1.0810127688347265E+001  7.8563714842553374E+000
       O -8.3600332681855571E-001  6.4662246981094471E+000  7.6957897049826212E+000
       O -1.4762964592015420E+000  8.8615367746101370E+000  6.9239717085099564E+000
       O -1.4429996230379347E+000  5.1064483542984469E+000  9.9264285171139406E+000
       O  4.4731066283300597E-001  7.5912168431605389E+000  5.7706307474735477E+000
       O -2.2074804481750716E+000  6.8010231791852389E+000  5.3452251416827705E+000
       O  3.0324296154212615E+000  8.5166728563840337E+000  6.9283853372736663E+000
       O -4.2011927896421764E+000  7.8983123767630161E+000  7.9204234797406388E+000
       O  1.0878184239932458E+000  1.0682405693943009E+001  8.8438083093151167E+000
       O  7.4744144482125810E-002  1.2080606227032819E+001  1.0668183233335304E+000
       O -3.8001664807481625E+000  1.2467655152229305E+001  6.4050387326962177E-001
       O -1.4899013528193690E+000  9.9089150891059159E+000  7.0478379716373007E-001
       Ca  6.8190112326399932E+000  1.0233353014849728E+001 -3.4588930523167839E-002
       H  3.1402786172257016E+000  8.7761679009473670E-001  5.4498392226056336E-001
       H  4.6300838187669955E+000  1.3397898312973224E+000  6.6670931322295479E-001
       H  5.1366001008246016E+000 -2.5334183664005100E-001  9.5737520300473538E+000
       H  5.0098529360274684E+000 -1.8523149898133064E+000  9.3135732041281987E+000
       H  8.1446552038597755E+000 -2.5557697491172759E+000  1.0043233407684278E+001
       H  9.1011626931041949E+000 -1.9624197565438093E+000  8.8935260873892723E+000
       H  5.6630940782781787E+000  1.8247628613231714E+000  9.9980639004634231E+000
       H  6.0123780292020008E+000  1.2341890266398645E+000  8.4980162668994854E+000
       H  3.9311392909602954E+000  3.2999279620497464E+000  9.6753721341335144E+000
       H  4.3050394320790026E+000  4.4727378122031727E+000  8.7381257922396607E+000
       H  1.9484938291042040E+000  4.5184807083115439E+000  6.6350336771770702E-001
       H  2.0880053844398416E+000  6.1006878709999004E+000  9.7869028627309218E-001
       H -2.0389422271972664E+000  5.8587901408922995E+000  1.3002078467074407E+000
       H -1.0246896197287223E+000  6.4726471129568885E+000  2.2670985164507629E-001
       H  1.0746508587997157E+000  2.7773645124598128E+000  1.6685502629748019E+000
       H  1.4189436742948260E+000  2.2166190786536184E+000  2.1493665130798709E-001
       H  6.6895219040136422E-001  7.7470123047554855E+000  5.4491083230863602E-001
       H  2.1584834560944404E+000  8.2099149227960595E+000  6.6692213689131885E-001
       H  2.6657279976426427E+000  6.6158467846208859E+000  9.5735462331950334E+000
       H  2.5378206979460685E+000  5.0169613469801231E+000  9.3136925091128440E+000
       H  5.6728035866996676E+000  4.3133231414744904E+000  1.0043126448302214E+001
       H  6.6296083013457059E+000  4.9067829654678912E+000  8.8936220966603337E+000
       H  3.1917628395652966E+000  8.6937358697607081E+000  9.9980558389079359E+000
       H  3.5409121480431405E+000  8.1037344374037996E+000  8.4978793286848315E+000
       H  1.4604434853765575E+000  1.0169458896843736E+001  9.6759085881734883E+000
       H  1.8341411034729656E+000  1.1341948931435217E+001  8.7381582204174997E+000
       H -5.2260710943456701E-001  1.1387701400554089E+001  6.6368816185600898E-001
       H -3.8353945374437803E-001  1.2969908112433640E+001  9.7889253665851816E-001
       H -4.5103070077278051E+000  1.2727989398171985E+001  1.3001233420140441E+000
       H -3.4960478340504024E+000  1.3342160309871295E+001  2.2687805195938796E-001
       H -1.3965329135036606E+000  9.6468240771948803E+000  1.6685677327818078E+000
       H -1.0522590781329650E+000  9.0860817751918628E+000  2.1493847669847557E-001
       H  5.7445475930779633E-001  5.2878346952127941E+000  4.5061150071408003E+000
       H  1.3725806912700347E+000  2.6576791563778053E+000  4.1790824398273729E+000
       H -5.2866865212066039E-001  3.7077507479309433E+000  2.3580575951506004E+000
       H  6.3782867838248176E+000 -1.2468963269754625E+000  5.6862602544630505E+000
       H  5.6908832652197763E+000  1.2412293057377515E+000  6.0502075232225723E+000
       H -8.1041797696521800E-001  1.3740275818330614E+000  7.9389142276237035E+000
       H -1.8967308947220154E+000  1.2157783429527342E+001  4.5062169448290188E+000
       H -1.0986204990294453E+000  9.5274750171577267E+000  4.1790250025140105E+000
       H -2.9998653798298891E+000  1.0577279182163373E+001  2.3579511492082896E+000
       H  3.9072245262913698E+000  5.6220181770236897E+000  5.6860167195074132E+000
       H  3.2225753958109808E+000  8.1086625862104356E+000  6.0519144033285146E+000
       H -3.2816564179767642E+000  8.2435935410604237E+000  7.9389604018163249E+000
     &END COORD
     &KIND "Ca"
       BASIS_SET "DZVP-MOLOPT-SR-GTH-q10"
       ELEMENT "Ca"
       POTENTIAL "GTH-PBE"
       &POTENTIAL
         4 6
           3.9000000000000001E-001 2 -4.1670722199999997E+000 -1.5837978100000001E+000
         3
           2.8935571999999998E-001 2  2.0531876350000001E+001 -7.1297857799999997E+000
                                                               9.2045138699999995E+000
           3.2788205999999998E-001 2  5.8056051300000000E+000 -4.2875335999999997E-001
                                                               5.0730781999999996E-001
           6.7961713000000001E-001 1  5.8068259999999997E-002
         # Potential name: GTH-PBE for element symbol: CA
         # Potential read from the potential filename: POTENTIAL
       &END POTENTIAL
     &END KIND
     &KIND "Si"
       BASIS_SET "DZVP-MOLOPT-SR-GTH-q4"
       ELEMENT "Si"
       POTENTIAL "GTH-PBE"
       &POTENTIAL
         2 2
           4.4000000000000000E-001 1 -6.2692883300000002E+000
         2
           4.3563383000000000E-001 2  8.9517415000000007E+000 -2.7062708199999999E+000
                                                               3.4937806000000000E+000
           4.9794218000000001E-001 1  2.4312767300000000E+000
         # Potential name: GTH-PBE for element symbol: SI
         # Potential read from the potential filename: POTENTIAL
       &END POTENTIAL
     &END KIND
     &KIND "O"
       BASIS_SET "DZVP-MOLOPT-SR-GTH-q6"
       ELEMENT "O"
       POTENTIAL "GTH-PBE"
       &POTENTIAL
         2 4
           2.4455430000000000E-001 2 -1.6667214800000000E+001  2.4873113199999999E+000
         2
           2.2095592000000000E-001 1  1.8337458110000000E+001
           2.1133246999999999E-001 0
         # Potential name: GTH-PBE for element symbol: O
         # Potential read from the potential filename: POTENTIAL
       &END POTENTIAL
     &END KIND
     &KIND "H"
       BASIS_SET "DZVP-MOLOPT-SR-GTH-q1"
       ELEMENT "H"
       POTENTIAL "GTH-PBE"
       &POTENTIAL
         1
           2.0000000000000001E-001 2 -4.1789004399999996E+000  7.2446330999999997E-001
         0
         # Potential name: GTH-PBE for element symbol: H
         # Potential read from the potential filename: POTENTIAL
       &END POTENTIAL
     &END KIND
     &TOPOLOGY
       COORD_FILE_NAME coord.xyz
       COORD_FILE_FORMAT XYZ
       NUMBER_OF_ATOMS 138
       MULTIPLE_UNIT_CELL 1 1 1
     &END TOPOLOGY
   &END SUBSYS
   &PRINT
     &FORCES ON
     &END FORCES
     &STRESS_TENSOR ON
     &END STRESS_TENSOR
   &END PRINT
 &END FORCE_EVAL
