 # Version information for this restart file 
 # current date 2025-01-16 09:11:26.132
 # current working dir /home/zkm/CP2K/Generate_dataset/Jennite/Elastic/elastic_cp2k/example/epsilonxy/pos
 # Program compiled at                2024年 10月 05日 星期六 13:00:57 CST
 # Program compiled on                                               ubuntu-GPU2
 # Program compiled for                                                    local
 # Source code revision number                                       git:6712648
 &GLOBAL
   PRINT_LEVEL LOW
   PROJECT_NAME "geoopt"
   RUN_TYPE GEO_OPT
 &END GLOBAL
 &MOTION
   &GEO_OPT
     OPTIMIZER BFGS
     MAX_ITER 1000
     MAX_DR  3.0000000000000001E-003
     MAX_FORCE  4.4999999999999999E-004
     RMS_DR  1.5000000000000000E-003
     RMS_FORCE  2.9999999999999997E-004
     STEP_START_VAL 32
     KEEP_SPACE_GROUP F
     &BFGS
       TRUST_RADIUS  2.0000000000000001E-001
     &END BFGS
   &END GEO_OPT
   &PRINT
     &TRAJECTORY SILENT
       FORMAT XMOL
     &END TRAJECTORY
     &CELL SILENT
     &END CELL
     &RESTART SILENT
       BACKUP_COPIES 0
     &END RESTART
     &RESTART_HISTORY OFF
     &END RESTART_HISTORY
   &END PRINT
 &END MOTION
 &FORCE_EVAL
   METHOD QS
   STRESS_TENSOR ANALYTICAL
   &DFT
     BASIS_SET_FILE_NAME BASIS_MOLOPT
     POTENTIAL_FILE_NAME POTENTIAL
     MULTIPLICITY 1
     CHARGE 0
     &SCF
       MAX_SCF 25
       EPS_SCF  9.9999999999999995E-008
       IGNORE_CONVERGENCE_FAILURE T
       &OT T
         ALGORITHM STRICT
         MINIMIZER DIIS
         LINESEARCH 2PNT
         PRECONDITIONER FULL_KINETIC
       &END OT
       &OUTER_SCF T
         EPS_SCF  9.9999999999999995E-008
         MAX_SCF 20
       &END OUTER_SCF
       &PRINT
         &RESTART SILENT
           BACKUP_COPIES 0
         &END RESTART
       &END PRINT
     &END SCF
     &QS
       EPS_DEFAULT  9.9999999999999998E-013
     &END QS
     &MGRID
       NGRIDS 4
       CUTOFF  5.0000000000000000E+002
       REL_CUTOFF  7.0000000000000000E+001
     &END MGRID
     &XC
       DENSITY_CUTOFF  1.0000000000000000E-010
       GRADIENT_CUTOFF  1.0000000000000000E-010
       TAU_CUTOFF  1.0000000000000000E-010
       &XC_FUNCTIONAL NO_SHORTCUT
         &PBE T
           PARAMETRIZATION PBESOL
         &END PBE
       &END XC_FUNCTIONAL
       &VDW_POTENTIAL
         POTENTIAL_TYPE PAIR_POTENTIAL
         &PAIR_POTENTIAL
           TYPE DFTD3(BJ)
           PARAMETER_FILE_NAME dftd3.dat
           REFERENCE_FUNCTIONAL "PBEsol"
         &END PAIR_POTENTIAL
       &END VDW_POTENTIAL
     &END XC
     &POISSON
       POISSON_SOLVER PERIODIC
       PERIODIC XYZ
     &END POISSON
   &END DFT
   &SUBSYS
     &CELL
       A  1.0581844796300002E+001  0.0000000000000000E+000  0.0000000000000000E+000
       B -4.8049653961000010E+000  1.3738964779500000E+001  0.0000000000000000E+000
       C -9.8413962140000000E-001 -2.7547349881000005E+000  1.0163400995300002E+001
       PERIODIC XYZ
       MULTIPLE_UNIT_CELL 1 1 1
     &END CELL
     &COORD
       Ca -7.4472873503988446E-001  1.3876493244109989E+000  3.6785632802614256E+000
       Ca  2.5423508351435085E+000  4.5906013131436216E+000  3.2803805809662188E+000
       Ca -1.8795901991889430E+000  4.8484331272385761E+000  3.9549925617659403E+000
       Ca  3.4223844083926829E+000  9.4687487505481116E-001  3.5211317544557978E+000
       Si  5.9555228084855107E+000  5.8159404942674868E+000  1.9741288648489415E+000
       Si  6.6870896304675096E+000  6.7308108275839529E-001  3.7703248131192977E+000
       Si  5.5096722972559125E+000  3.5198521871754753E+000  3.9602394664791931E+000
       O  5.0046455191422901E+000  1.3031379148717242E+001  2.6080057341725604E+000
       O  3.4434706326206976E-001  5.5052932698383881E+000  3.5363560604488251E+000
       O  5.4570212046150441E+000 -2.6143814579568114E-001  4.2973283049144602E+000
       O  7.8475714600849216E+000  8.5562224905383300E-001  4.8992354435148711E+000
       O  7.3466007784525260E+000  2.1007826124984380E-001  2.3325322350670059E+000
       O  5.2080798867422651E+000  4.5131037188346106E+000  2.6730900091989178E+000
       O  6.0424533492167418E+000  2.1132444033838906E+000  3.3053468628238529E+000
       O  6.0321419708266566E+000  5.6576543862937241E+000  3.7185057660263537E-001
       O  3.9998986978504316E+000  3.1843672530423159E+000  4.4582854912184589E+000
       O  6.6047275194750865E+000  4.1218718072623233E+000  4.9954611319741078E+000
       O  1.4789324461554414E+000  2.3211937115917256E+000  3.3106980308925955E+000
       O -1.3628763006488329E+000  3.1934211302062261E+000  2.3918082706550035E+000
       O  3.9467543447896545E+000  8.4471655760168596E-001  1.2063261540378727E+000
       O  4.4411080534737959E+000 -1.0087799478752382E+000  9.3270951882643001E+000
       O  8.2721017486210329E+000 -1.7302011306633827E+000  9.4515239901480257E+000
       O  6.0985092110941697E+000  9.5946010605696175E-001  9.3940839617115675E+000
       Ca  7.6596802145137080E+000  2.5868554357042144E+000  6.5857948677586196E+000
       Ca  4.3751723518099466E+000 -6.1993087655264090E-001  6.9730147120613157E+000
       Ca  8.7238617512265328E+000 -8.0645499776465013E-001  6.4004703830637153E+000
       Ca  3.4634982323319448E+000  3.0007951871433698E+000  6.6196558159107051E+000
       Si  9.8257193876312188E-001 -1.8070535038506135E+000  8.2890081021893707E+000
       Si  2.7427419332503955E-001  3.4130618231204051E+000  6.4008166802047803E+000
       Si  1.3937229341594619E+000  5.1259403798383485E-001  6.3422574058215488E+000
       O -2.8770245741443969E+000  4.6472653725944291E+000  7.6905328441721981E+000
       O  6.5228363737862898E+000 -1.5254785614163286E+000  6.6254614657205746E+000
       O  1.4759640497783888E+000  4.3268171437697838E+000  5.7912030992977188E+000
       O -9.4788271420919024E-001  3.1469354945977668E+000  5.3779948736173973E+000
       O -2.5834261562507271E-001  3.9863911561233021E+000  7.8436632156062869E+000
       O  1.5651101113405110E+000 -3.5708861202112679E-001  7.7366845993472992E+000
       O  1.0322439525307061E+000  2.0308216505418839E+000  6.9147390693274033E+000
       O  9.3207888717692622E-001 -1.7863044055778172E+000  9.8960791264818724E+000
       O  2.9057745181072128E+000  6.9905589667339540E-001  5.7814755193979437E+000
       O  2.4975272267828713E-001 -7.4375274176187195E-002  5.3632734467833583E+000
       O  5.4544215146524309E+000  1.6314344968728938E+000  6.9140370894484855E+000
       O -1.7324261710235676E+000  1.0156239839835584E+000  7.9033236348524083E+000
       O  3.5189987923713537E+000  3.7963674241295311E+000  8.8209441956454935E+000
       O  2.5346010746318210E+000  5.2091703793081416E+000  1.0551716735169827E+000
       O -1.3527515677541579E+000  5.5734255173116933E+000  7.0118586182998999E-001
       O  9.9357120954004741E-001  3.0557045145732458E+000  7.1322840036677604E-001
       Ca  9.2844091901923456E+000  3.3408615064913696E+000  2.2846418556718935E-002
       Ca -3.1835138087105319E+000  8.2514405884587720E+000  3.6794967722213143E+000
       Ca  1.0802881024631113E-001  1.1463962617164974E+001  3.2881144774314475E+000
       Ca -4.2886263273861882E+000  1.1721712783687922E+001  3.9505477415108254E+000
       Ca  9.8107474831301966E-001  7.7927793782445161E+000  3.5432534658716550E+000
       Si  3.5497562908538693E+000  1.2695095752053565E+001  1.9674734393233879E+000
       Si  4.2591856569760669E+000  7.5406008795661901E+000  3.7508357144712199E+000
       Si  3.0905308691175257E+000  1.0372442747560534E+001  3.9130327020422855E+000
       O  7.4100215147235113E+000  6.1592286432153953E+000  2.6107926106769077E+000
       O -2.0757346136637285E+000  1.2429513800529694E+001  3.5372414922912574E+000
       O  3.0422656810510604E+000  6.6024210027100132E+000  4.2961009877415384E+000
       O  5.4063145950515210E+000  7.7414635962329639E+000  4.8879973453876300E+000
       O  4.9460436932308705E+000  7.0715678761754734E+000  2.3287991379502708E+000
       O  2.7979153718041436E+000  1.1378804504688478E+001  2.6312032776788716E+000
       O  3.5924431223615043E+000  8.9561326430242332E+000  3.2460861228916738E+000
       O  3.6274353820726075E+000  1.2543738592879869E+001  3.6364112277036770E-001
       O  1.5859123041551917E+000  1.0055250134186519E+001  4.4432866882861219E+000
       O  4.1924208932846083E+000  1.0962470998441287E+001  4.9456168692637217E+000
       O -9.8148497706668436E-001  9.1914780561173970E+000  3.3096945255529016E+000
       O -3.8299179824442064E+000  1.0063211135137458E+001  2.3891897878638266E+000
       O  1.5342921522419504E+000  7.6947701972257407E+000  1.2599286886949259E+000
       O  1.9758039861345555E+000  5.8507034837031169E+000  9.3330870582131773E+000
       O  5.8083292635479573E+000  5.1379908278302242E+000  9.4512006255756855E+000
       O  3.6284660538535327E+000  7.8197656040240568E+000  9.3922047465690301E+000
       Ca  5.2379846924623017E+000  9.4647520400912803E+000  6.5605814619988552E+000
       Ca  1.9392907248946374E+000  6.2516309689794536E+000  6.9863238450673624E+000
       Ca  6.2933747587016651E+000  6.0564962672328386E+000  6.4191547829967615E+000
       Ca  1.0654326479742982E+000  9.8656284139693309E+000  6.6070591585537581E+000
       Si -1.4322682112417287E+000  5.0457774473069881E+000  8.3259882746106975E+000
       Si -2.1330896329508198E+000  1.0279399600451157E+001  6.3950883368859017E+000
       Si -1.0408310623289647E+000  7.3723575336115257E+000  6.3573353310348768E+000
       O -5.2585273623287412E+000  1.1536561889259911E+001  7.6326582295492207E+000
       O  4.0703911209958177E+000  5.3499104452539656E+000  6.6259254209867677E+000
       O -9.2069625995292892E-001  1.1183654868969876E+001  5.7896319593314347E+000
       O -3.3544858380974429E+000  1.0019963874779389E+001  5.3700123760884209E+000
       O -2.6556670468749362E+000  1.0858060249755699E+001  7.8373340516111307E+000
       O -8.8123347303297683E-001  6.4984075411221847E+000  7.7511277886467500E+000
       O -1.4190400801821648E+000  8.8839075534093723E+000  6.9229961493251766E+000
       O -1.4700758354930854E+000  5.0698476924221048E+000  9.9370884659332113E+000
       O  4.6960235192803007E-001  7.5681391718696460E+000  5.7927005448918027E+000
       O -2.1689736329939993E+000  6.7877201407640309E+000  5.3617785113699439E+000
       O  3.0471553628081240E+000  8.4991965222032171E+000  6.9105445637443497E+000
       O -4.1985745845974476E+000  7.8863451177995190E+000  7.9033006623431419E+000
       O  1.1246612949845241E+000  1.0666056308547773E+001  8.8149779054912241E+000
       O  6.2962451696803728E-002  1.2076288742491133E+001  1.0583932155518359E+000
       O -3.8170525482536921E+000  1.2460464746869974E+001  6.3391086500152105E-001
       O -1.4741346929790611E+000  9.9125432074583859E+000  7.1194851156639338E-001
       Ca  6.8157632162605619E+000  1.0211548245465304E+001  1.7290311457657141E-002
       H  3.1091787424061281E+000  8.7548641943431782E-001  5.7725232063597121E-001
       H  4.6093737361581795E+000  1.3397071318767335E+000  6.3854705056229577E-001
       H  5.1185239461435748E+000 -2.7029814224061122E-001  9.5354504163469418E+000
       H  4.9640917159496185E+000 -1.8788417006552083E+000  9.2955731862154121E+000
       H  8.0915108097316519E+000 -2.5872140602091083E+000  9.9803261043841793E+000
       H  9.0569112580264033E+000 -1.9715770769732091E+000  8.8549165749378869E+000
       H  5.6564593833060792E+000  1.7821069884192358E+000  9.9151671067514702E+000
       H  5.9680822916981429E+000  1.1824959252464460E+000  8.4172097356650486E+000
       H  3.9179585030089052E+000  3.2726519398634291E+000  9.6331903036137945E+000
       H  4.2607683301927253E+000  4.4585984866735542E+000  8.7038019888143854E+000
       H  1.9319296527429655E+000  4.5206459712155880E+000  6.5196341961202486E-001
       H  2.0900939036935218E+000  6.1076029826787916E+000  9.8511507239004104E-001
       H -2.0677032286545991E+000  5.8386533159285978E+000  1.3518598208369776E+000
       H -1.0292553217562252E+000  6.4503546893620225E+000  3.0566157555712531E-001
       H  1.0717866870595274E+000  2.8085503488642050E+000  1.6813731199225408E+000
       H  1.4048498499313342E+000  2.2028427293206354E+000  2.4645521498892131E-001
       H  7.0151934349125755E-001  7.7272826095135718E+000  6.2218218976637274E-001
       H  2.1933145786480064E+000  8.2008641384107168E+000  7.0176836228234241E-001
       H  2.6501258330866850E+000  6.5948952660126965E+000  9.5363234430797537E+000
       H  2.5088561769639046E+000  4.9883359655292701E+000  9.3014803003005966E+000
       H  5.6454865724052095E+000  4.2841806016179778E+000  9.9944113582025835E+000
       H  6.6105661146718990E+000  4.8975779384367284E+000  8.8718420894454049E+000
       H  3.2075415427797398E+000  8.6528195321695911E+000  9.9116832577695906E+000
       H  3.5241969856613600E+000  8.0515972083104099E+000  8.4123074196877017E+000
       H  1.5397794183245574E+000  1.0153660260882875E+001  9.6344234613804005E+000
       H  1.8648716712629660E+000  1.1322210367761711E+001  8.6727208389704025E+000
       H -5.4312901837933591E-001  1.1397195479329753E+001  6.4818411278412347E-001
       H -3.5191132123884911E-001  1.2987746943656088E+001  9.6673060774655795E-001
       H -4.4951061867683011E+000  1.2729525207978300E+001  1.3208813125976364E+000
       H -3.4646831721952096E+000  1.3334294913072455E+001  2.5710432691370566E-001
       H -1.3812824689462813E+000  9.6781083104311030E+000  1.6826954005239165E+000
       H -1.0403969945178906E+000  9.0650203532274194E+000  2.6094720886369960E-001
       H  5.7003516001917953E-001  5.2911914259471517E+000  4.4775889315456832E+000
       H  1.3471854600585178E+000  2.7269720584897854E+000  4.1968309098242198E+000
       H -5.1743293629490938E-001  3.7000997072361415E+000  2.4046240618520751E+000
       H  6.3402229398618353E+000 -1.2797916472780699E+000  5.6825990339058672E+000
       H  5.6187738351054390E+000  1.2266998923536667E+000  6.0305226631761348E+000
       H -8.1075168282911148E-001  1.3519774308950880E+000  7.9333878007259901E+000
       H -1.8598153689439449E+000  1.2237409789773322E+001  4.4835255567764500E+000
       H -1.1079220199682778E+000  9.6024732324920112E+000  4.1942474372760703E+000
       H -2.9642694524141655E+000  1.0532639560810097E+001  2.3834375476546472E+000
       H  3.8914507533377893E+000  5.6040616218425949E+000  5.6839196050312140E+000
       H  3.2347851461602524E+000  8.0675529079116810E+000  6.0441336575334246E+000
       H -3.2772800911244619E+000  8.2251238388385790E+000  7.9378271806954466E+000
     &END COORD
     &KIND "Ca"
       BASIS_SET "DZVP-MOLOPT-SR-GTH-q10"
       ELEMENT "Ca"
       POTENTIAL "GTH-PBE"
       &POTENTIAL
         4 6
           3.9000000000000001E-001 2 -4.1670722199999997E+000 -1.5837978100000001E+000
         3
           2.8935571999999998E-001 2  2.0531876350000001E+001 -7.1297857799999997E+000
                                                               9.2045138699999995E+000
           3.2788205999999998E-001 2  5.8056051300000000E+000 -4.2875335999999997E-001
                                                               5.0730781999999996E-001
           6.7961713000000001E-001 1  5.8068259999999997E-002
         # Potential name: GTH-PBE for element symbol: CA
         # Potential read from the potential filename: POTENTIAL
       &END POTENTIAL
     &END KIND
     &KIND "Si"
       BASIS_SET "DZVP-MOLOPT-SR-GTH-q4"
       ELEMENT "Si"
       POTENTIAL "GTH-PBE"
       &POTENTIAL
         2 2
           4.4000000000000000E-001 1 -6.2692883300000002E+000
         2
           4.3563383000000000E-001 2  8.9517415000000007E+000 -2.7062708199999999E+000
                                                               3.4937806000000000E+000
           4.9794218000000001E-001 1  2.4312767300000000E+000
         # Potential name: GTH-PBE for element symbol: SI
         # Potential read from the potential filename: POTENTIAL
       &END POTENTIAL
     &END KIND
     &KIND "O"
       BASIS_SET "DZVP-MOLOPT-SR-GTH-q6"
       ELEMENT "O"
       POTENTIAL "GTH-PBE"
       &POTENTIAL
         2 4
           2.4455430000000000E-001 2 -1.6667214800000000E+001  2.4873113199999999E+000
         2
           2.2095592000000000E-001 1  1.8337458110000000E+001
           2.1133246999999999E-001 0
         # Potential name: GTH-PBE for element symbol: O
         # Potential read from the potential filename: POTENTIAL
       &END POTENTIAL
     &END KIND
     &KIND "H"
       BASIS_SET "DZVP-MOLOPT-SR-GTH-q1"
       ELEMENT "H"
       POTENTIAL "GTH-PBE"
       &POTENTIAL
         1
           2.0000000000000001E-001 2 -4.1789004399999996E+000  7.2446330999999997E-001
         0
         # Potential name: GTH-PBE for element symbol: H
         # Potential read from the potential filename: POTENTIAL
       &END POTENTIAL
     &END KIND
     &TOPOLOGY
       COORD_FILE_NAME coord.xyz
       COORD_FILE_FORMAT XYZ
       NUMBER_OF_ATOMS 138
       MULTIPLE_UNIT_CELL 1 1 1
     &END TOPOLOGY
   &END SUBSYS
   &PRINT
     &FORCES ON
     &END FORCES
     &STRESS_TENSOR ON
     &END STRESS_TENSOR
   &END PRINT
 &END FORCE_EVAL
